Al 
 1.0000000000000000
     4.0414967928905172    0.0000000000000000    0.0000000000000000
     0.0000000000000000    4.0414967928905172    0.0000000000000000
     0.0000000000000000    0.0000000000000000    4.0414967928905172
   4
Cartesian
  0.0000000000000000  0.0000000000000000  0.0000000000000000
  0.0000000000000000  2.0207483964452582  2.0207483964452582
  2.0207483964452582  0.0000000000000000  2.0207483964452582
  2.0207483964452582  2.0207483964452582  0.0000000000000000
