Al 
 1.0000000000000000
     4.0427822232252897    0.0000000000000000    0.0000000000000000
     0.0000000000000000    4.0427822232252897    0.0000000000000000
     0.0000000000000000    0.0000000000000000    4.0427822232252897
   4
Cartesian
  0.0000000000000000  0.0000000000000000  0.0000000000000000
  0.0000000000000000  2.0213911116126444  2.0213911116126444
  2.0213911116126444  0.0000000000000000  2.0213911116126444
  2.0213911116126444  2.0213911116126444  0.0000000000000000
