Al 
 1.0000000000000000
     4.0422776708255643    0.0000000000000000    0.0000000000000000
     0.0000000000000000    4.0422776708255643    0.0000000000000000
     0.0000000000000000    0.0000000000000000    4.0422776708255643
   4
Cartesian
  0.0000000000000000  0.0000000000000000  0.0000000000000000
  0.0000000000000000  2.0211388354127817  2.0211388354127817
  2.0211388354127817  0.0000000000000000  2.0211388354127817
  2.0211388354127817  2.0211388354127817  0.0000000000000000
