Al 
 1.0000000000000000
     4.0440983439931371    0.0000000000000000    0.0000000000000000
     0.0000000000000000    4.0440983439931371    0.0000000000000000
     0.0000000000000000    0.0000000000000000    4.0440983439931371
   4
Cartesian
  0.0000000000000000  0.0000000000000000  0.0000000000000000
  0.0000000000000000  2.0220491719965681  2.0220491719965681
  2.0220491719965681  0.0000000000000000  2.0220491719965681
  2.0220491719965681  2.0220491719965681  0.0000000000000000
