Al 
 1.0000000000000000
     4.0440983439931371    0.0000000000000000    0.0000000000000000
     0.0000000000000000    4.0440983439931371    0.0000000000000000
     0.0000000000000000    0.0000000000000000    4.0440983439931371
   4
Direct
  0.0000000000000000  0.0000000000000000  0.0000000000000000
  0.0000000000000000  0.4999999999999999  0.4999999999999999
  0.4999999999999999  0.0000000000000000  0.4999999999999999
  0.4999999999999999  0.4999999999999999  0.0000000000000000
