Al 
 1.0000000000000000
     4.0433526796792094    0.0000000000000000    0.0000000000000000
     0.0000000000000000    4.0433526796792094    0.0000000000000000
     0.0000000000000000    0.0000000000000000    4.0433526796792094
   4
Cartesian
  0.0000000000000000  0.0000000000000000  0.0000000000000000
  0.0000000000000000  2.0216763398396043  2.0216763398396043
  2.0216763398396043  0.0000000000000000  2.0216763398396043
  2.0216763398396043  2.0216763398396043  0.0000000000000000
