&CONTROL
  calculation = 'scf'
  outdir = './out/'
  prefix = 'aiida'
  pseudo_dir = '/users/aglensk/Dropbox/Albert/scripts/dotfiles/scripts/potentials/quantum_espresso/pseudo_SSSPefV1.1_alalloy'
  tprnfor = .true.             	! calculate the pressure of the cell
  tstress = .true.
  verbosity = 'high'
  wf_collect = .true.
  etot_conv_thr = 2.5d-4    ! EDIFFG positive atomic units
  forc_conv_thr = 2.0d-5
/
&SYSTEM
  degauss =   4.4100000000d-02  ! SIGMA in Rydberg  so, 0.60001101eV
  ecutrho = 400                 ! AUGMENTATION charges
  ecutwfc =  40                 ! ENCUT in Rydberg, so 544eV
  ibrav = 0                     ! no symmetry
   nat              = 22
   ntyp             = 3
  occupations = 'smearing'      ! using smearing 
  smearing = 'mp'               ! methfessel paxton
  nosym= .true. 		! no symmetry
/
&ELECTRONS
  conv_thr =   1.0000000000d-12   	! EDIFF
  mixing_beta =   4.0000000000d-01      ! MIXING
  mixing_mode = 'local-TF'                 ! MIXING
/
&IONS
  !press_conv_thr = 0.05                 ! just for volume relaxations
/
ATOMIC_SPECIES
Mg 24.305 Mg.pbe-n-kjpaw_psl.0.3.0.UPF
Si 28.085 Si.pbe-n-rrkjus_psl.1.0.0.UPF
Al 26.9815385 Al.pbe-n-kjpaw_psl.1.0.0.UPF

K_POINTS automatic
6 20 12 0 0 0
CELL_PARAMETERS angstrom
14.11229523441606 0.00000000000000 -3.84880798363246
0.00000000000000 4.05703339504001 0.00000000000000
0.00000000000000 0.00000000000000 6.95992758959981

ATOMIC_POSITIONS angstrom
Mg 0.0198504955 0.0000000000 4.7153806460 
Mg 1.0503135734 2.0285166975 -0.0485408963 
Mg 2.1925933834 2.0285166975 3.5242032742 
Mg 4.9034094800 0.0000000000 3.9816954939 
Mg 6.0456363723 0.0000000000 0.5945480589 
Si 0.8354554548 0.0000000000 2.1065010139 
Si 2.6250004867 0.0000000000 5.5410352097 
Al 3.1149720161 0.0000000000 1.1795158936 
Al 3.9809726379 2.0285166975 -0.6335177271 
Si 4.4709753887 2.0285166975 1.9648635584 
Si 6.2604532150 2.0285166975 -1.5605398897 
Mg 7.0761449594 2.0285166975 2.7905329391 
Mg 8.1064476966 0.0000000000 -1.9735314811 
Mg 9.2486327839 0.0000000000 1.5995540087 
Mg 11.9596631972 2.0285166975 2.0575441842 
Mg 13.1017974835 2.0285166975 -1.3292666941 
Si 7.8915218434 2.0285166975 0.1817538506 
Si 9.6811859401 2.0285166975 3.6165542226 
Al 10.1710791512 2.0285166975 -0.7450169529 
Al 11.0371617955 0.0000000000 -2.5577843974 
Si 11.5270841114 0.0000000000 0.0405444995 
Si 13.3166815318 0.0000000000 -3.4845991226 

