&CONTROL
  calculation = 'scf'
  outdir = './out/'
  prefix = 'aiida'
  pseudo_dir = '/users/aglensk/Dropbox/Albert/scripts/dotfiles/scripts/potentials/quantum_espresso/pseudo_SSSPefV1.1_alalloy'
  tprnfor = .true.             	! calculate the pressure of the cell
  tstress = .true.
  verbosity = 'high'
  wf_collect = .true.
  etot_conv_thr = 2.5d-4    ! EDIFFG positive atomic units
  forc_conv_thr = 2.0d-5
/
&SYSTEM
  degauss =   4.4100000000d-02  ! SIGMA in Rydberg  so, 0.60001101eV
  ecutrho = 400                 ! AUGMENTATION charges
  ecutwfc =  40                 ! ENCUT in Rydberg, so 544eV
  ibrav = 0                     ! no symmetry
   nat              = 96
   ntyp             = 3
  occupations = 'smearing'      ! using smearing 
  smearing = 'mp'               ! methfessel paxton
  nosym= .true. 		! no symmetry
/
&ELECTRONS
  conv_thr =   1.0000000000d-12   	! EDIFF
  mixing_beta =   4.0000000000d-01      ! MIXING
  mixing_mode = 'local-TF'                 ! MIXING
/
&IONS
  !press_conv_thr = 0.05                 ! just for volume relaxations
/
ATOMIC_SPECIES
Al 26.9815385 Al.pbe-n-kjpaw_psl.1.0.0.UPF
Mg 24.305 Mg.pbe-n-kjpaw_psl.0.3.0.UPF
Si 28.085 Si.pbe-n-rrkjus_psl.1.0.0.UPF

K_POINTS automatic
7 10 5 0 0 0
CELL_PARAMETERS angstrom
12.17099911227282 0.00000000000000 0.00000000000000
0.00000000000000 8.11399958457428 0.00000000000000
0.00000000000000 0.00000000000000 16.22799863997135

ATOMIC_POSITIONS angstrom
Al 6.0549292533 1.9985710884 16.1981551620 
Al 4.0294997756 8.0798771797 16.1982223675 
Al 6.0481092174 8.0762327362 1.9811669791 
Al 4.0295283512 1.9986896240 1.9844256523 
Al 6.0479880358 1.9880986714 3.9983645761 
Al 4.0291986738 8.0734915983 4.0026371529 
Al 6.0258943581 8.0678484525 6.0405271663 
Al 4.0289134472 1.9918383667 6.0470090580 
Al 6.0331768949 2.0192635048 8.0842174912 
Al 4.0285652486 8.0795337437 8.0842100827 
Al 6.0257197296 8.0682241683 10.1280057138 
Al 4.0286795509 1.9922627668 10.1214693169 
Al 6.0476911674 1.9885929229 12.1700069050 
Al 4.0288002033 8.0740001376 12.1657147486 
Al 6.0478393370 8.0765094959 14.1871341214 
Al 4.0293542519 1.9989600336 14.1838913235 
Al 10.1147175449 1.9960924223 16.1982387720 
Al 8.0805651101 8.0871470162 16.1981980254 
Al 10.1148958776 8.0969632535 1.9777167437 
Al 8.0839820073 1.9954214256 1.9911477904 
Al 8.0926139460 8.0595043863 3.9698911379 
Al 8.0923504157 8.0599859375 12.1984941018 
Al 10.1146984945 8.0973252107 14.1907055384 
Al 8.0838513005 1.9957304651 14.1770744626 
Al 2.0041078695 1.9986668694 16.1983128568 
Al 12.1490530750 8.0869935548 16.1982996274 
Al 2.0107548644 8.0762512574 1.9811045362 
Al 12.1458806576 1.9953573952 1.9908816143 
Al 2.0104484708 1.9880536913 3.9983042499 
Al 12.1368565986 8.0595964631 3.9698202281 
Al 2.0316002131 8.0678521567 6.0403647089 
Al 2.0240700214 2.0191925951 8.0842508293 
Al 2.0314409308 8.0681966511 10.1279607337 
Al 2.0101214393 1.9885294216 12.1700883983 
Al 12.1365316838 8.0600145131 12.1986888390 
Al 2.0105421352 8.0765655887 14.1872468362 
Al 12.1457869933 1.9957436945 14.1776168693 
Mg 8.1539344719 1.9457179269 6.0094401219 
Mg 12.0752153913 1.9461349186 6.0093962002 
Si 10.1152133839 2.0776846689 3.8677731657 
Si 10.1149482661 7.9769262825 5.8045109553 
Si 7.8286952790 8.0245141307 8.0840047619 
Mg 10.1142846779 1.6506016175 8.0841391729 
Mg 8.1537217427 1.9460216746 10.1588265821 
Mg 12.0749941952 1.9461460313 10.1589080754 
Si 0.2284939569 8.0245776320 8.0837973245 
Si 10.1145815463 7.9771675874 10.3640018160 
Si 10.1148419015 2.0782291922 12.3006036072 
Al 6.0500089636 6.0475398227 16.1981509286 
Al 4.0294553247 4.0215282501 16.1982260718 
Al 6.0586430189 4.0271825086 1.9923860651 
Al 4.0294632624 6.0453537916 1.9942683485 
Al 6.0667918188 6.0549313700 4.0240180289 
Al 4.0292330703 4.0252213778 4.0228628350 
Al 6.0593933922 4.0319874377 6.0375664198 
Al 4.0288753465 6.0506275717 6.0473143932 
Al 6.0189160982 6.0215884431 8.0842561211 
Al 4.0285858866 4.0192469671 8.0842455376 
Al 6.0591806630 4.0323335196 10.1309452932 
Al 4.0285895908 6.0509831788 10.1210846051 
Al 6.0663626561 6.0554907103 12.1443629774 
Al 4.0288123744 4.0257442049 12.1455345757 
Al 6.0584562194 4.0275259446 14.1758589426 
Al 4.0290769630 6.0456739439 14.1740179351 
Al 10.1147958631 6.0675046205 16.1982403595 
Al 8.0802063279 4.0202502871 16.1981429909 
Al 10.1147678167 4.0259622259 1.9624494520 
Al 8.0853991439 6.0533613012 1.9808997446 
Al 10.1147064321 6.0279253402 3.9673902464 
Al 8.0897119381 4.0498381725 4.0000399511 
Al 10.1143074325 4.1113708986 6.0764170231 
Al 8.0915169616 6.0933782110 6.0670876289 
Al 10.1141947178 6.3396292384 8.0841762153 
Al 8.1109806286 4.0819089574 8.0842402458 
Al 10.1141867801 4.1116910508 10.0920655852 
Al 8.0912613690 6.0937459892 10.1012997275 
Al 10.1143915717 6.0283185189 12.2010902452 
Al 8.0894679874 4.0502863856 12.1682331030 
Al 10.1147138406 4.0262527442 14.2058410650 
Al 8.0851954106 6.0536549945 14.1873320337 
Al 2.0087228240 6.0475011928 16.1982869271 
Al 12.1494880587 4.0202793919 16.1982911605 
Al 2.0001279277 4.0271941505 1.9923971778 
Al 12.1443232891 6.0533581261 1.9808992154 
Al 1.9916843761 6.0549408952 4.0237603196 
Al 12.1396845217 4.0497789047 3.9997785376 
Al 1.9983996349 4.0320038422 6.0374785764 
Al 12.1374397519 6.0929929700 6.0668082233 
Al 2.0380657003 6.0214328650 8.0841592817 
Al 12.1172553456 4.0819243035 8.0842069076 
Al 1.9980408528 4.0323456906 10.1309405306 
Al 12.1370661528 6.0935528395 10.1013764582 
Al 1.9912493925 6.0553515367 12.1445243764 
Al 12.1394601505 4.0501980130 12.1685648971 
Al 1.9999236653 4.0275111276 14.1760833137 
Al 12.1441227309 6.0536751033 14.1875569340 

