   LAMBDA       = xxxLAMBDAxxx
   REF_TYPE     = hesse
   PRE_EQ_N     = 20000
   GAMMA_LD     = 0.01
   SEED         = xxxSEEDxxx
   POTIM  = 10
   TEBEG  = xxxTEMPxxx
   ENCUT  = xxxCUTOFFxxx
   ISMEAR = -1  
   SIGMA  = 0.1
   EDIFF  = 1E-2
   NSW    = 4000
   ISYM   = 0
   IBRION = 0
   ADDGRID= TRUE
   PREC   = Accurate
   ISTART = 0  
   ICHARG = 2  
   NBANDS = 61
   LREAL  = FALSE
   ALGO   = FAST
   LWAVE  = F   
   LCHARG = F   
   LVTOT  = F   
   LELF   = F   
   NWRITE=0
NPAR=1
