NPAR=2

   ENCUT  =    xxxCUTOFFxxx
   ISMEAR =     -1  
   SIGMA  =    0.1   
   EDIFF  =   1E-3 

   ISYM   =      0
   ADDGRID=    TRUE
   PREC   =  Accurate
   NBANDS =    195
   ALGO   =    FAST

   LWAVE  =      F   
   LCHARG =      F   
NGXF=120
NGYF=120
NGZF=120
