K-Points
 0
Monkhorst Pack
 xxxKPxxx xxxKPxxx xxxKPxxx
 0 0 0
