Al 
 1.0000000000000000
     4.0422783265334106    0.0000000000000000    0.0000000000000000
     0.0000000000000000    4.0422783265334106    0.0000000000000000
     0.0000000000000000    0.0000000000000000    4.0422783265334106
   4
Direct
  0.0000000000000000  0.0000000000000000  0.0000000000000000
  0.0000000000000000  0.4999999999999999  0.4999999999999999
  0.4999999999999999  0.0000000000000000  0.4999999999999999
  0.4999999999999999  0.4999999999999999  0.0000000000000000
