Al 
 1.0000000000000000
     4.0422783265334106    0.0000000000000000    0.0000000000000000
     0.0000000000000000    4.0422783265334106    0.0000000000000000
     0.0000000000000000    0.0000000000000000    4.0422783265334106
   4
Cartesian
  0.0000000000000000  0.0000000000000000  0.0000000000000000
  0.0000000000000000  2.0211391632667048  2.0211391632667048
  2.0211391632667048  0.0000000000000000  2.0211391632667048
  2.0211391632667048  2.0211391632667048  0.0000000000000000
