Mg8 Si4
1.0
6.365173 0.000000 0.000000
0.000000 6.365173 0.000000
0.000000 0.000000 6.365173
Mg Si
8 4
direct
0.250000 0.250000 0.250000 Mg
0.750000 0.250000 0.250000 Mg
0.250000 0.250000 0.750000 Mg
0.750000 0.250000 0.750000 Mg
0.750000 0.750000 0.750000 Mg
0.250000 0.750000 0.750000 Mg
0.750000 0.750000 0.250000 Mg
0.250000 0.750000 0.250000 Mg
0.000000 0.000000 0.000000 Si
0.000000 0.500000 0.500000 Si
0.500000 0.000000 0.500000 Si
0.500000 0.500000 0.000000 Si
