&CONTROL
  calculation = 'scf'
  outdir = './out/'
  prefix = 'aiida'
  pseudo_dir = '/users/aglensk/Dropbox/Albert/scripts/dotfiles/scripts/potentials/quantum_espresso/pseudo_SSSPefV1.1_alalloy'
  tprnfor = .true.             	! calculate the pressure of the cell
  tstress = .true.
  verbosity = 'high'
  wf_collect = .true.
  etot_conv_thr = 2.5d-4    ! EDIFFG positive atomic units
  forc_conv_thr = 2.0d-5
/
&SYSTEM
  degauss =   4.4100000000d-02  ! SIGMA in Rydberg  so, 0.60001101eV
  ecutrho = 400                 ! AUGMENTATION charges
  ecutwfc =  40                 ! ENCUT in Rydberg, so 544eV
  ibrav = 0                     ! no symmetry
   nat              = 256
   ntyp             = 2
  occupations = 'smearing'      ! using smearing 
  smearing = 'mp'               ! methfessel paxton
  nosym= .true. 		! no symmetry
/
&ELECTRONS
  conv_thr =   1.0000000000d-12   	! EDIFF
  mixing_beta =   4.0000000000d-01      ! MIXING
  mixing_mode = 'local-TF'                 ! MIXING
/
&IONS
  !press_conv_thr = 0.05                 ! just for volume relaxations
/
ATOMIC_SPECIES
Mg 24.305 Mg.pbe-n-kjpaw_psl.0.3.0.UPF
Al 26.9815385 Al.pbe-n-kjpaw_psl.1.0.0.UPF

K_POINTS automatic
5 5 5 0 0 0
CELL_PARAMETERS angstrom
16.22799863997135 0.00000000000000 0.00000000000000
0.00000000000000 16.22799863997135 0.00000000000000
0.00000000000000 0.00000000000000 16.22799863997135

ATOMIC_POSITIONS angstrom
Mg 16.2074512181 16.2074512181 0.0000000000 
Al 2.0525265259 16.2039771697 2.0777809791 
Mg 2.0490249603 2.0490249603 0.0000000000 
Al 16.2039771697 2.0525265259 2.0777809791 
Al 16.2237287091 16.2237287091 4.0711073921 
Al 2.0327675781 2.0327675781 4.0711073921 
Al 2.0287865779 16.2277081217 6.0919351448 
Al 16.2277081217 2.0287865779 6.0919351448 
Al 16.2275271431 16.2275271431 8.1139995846 
Al 2.0289675565 2.0289675565 8.1139995846 
Al 2.0287865779 16.2277081217 10.1360640244 
Al 16.2277081217 2.0287865779 10.1360640244 
Al 16.2237287091 16.2237287091 12.1568912478 
Al 2.0327675781 2.0327675781 12.1568917770 
Al 2.0525265259 16.2039771697 14.1502176609 
Al 16.2039771697 2.0525265259 14.1502176609 
Al 16.2024621353 4.0843426433 0.0000000000 
Al 2.0284161538 6.0898628868 0.0000000000 
Al 2.0330586255 4.0914198594 2.0582982618 
Al 16.2237043669 6.0981683231 2.0325918912 
Al 16.2241912099 4.0686419555 4.0740670803 
Al 2.0285484482 6.0943376093 4.0655372728 
Al 2.0285606192 4.0584071391 6.0898448948 
Al 16.2278721666 6.0879462070 6.0880689761 
Al 16.2275673605 4.0583822677 8.1139995846 
Al 2.0287648816 6.0867751378 8.1139995846 
Al 2.0285606192 4.0584071391 10.1381542743 
Al 16.2278721666 6.0879462070 10.1399296639 
Al 16.2241912099 4.0686419555 12.1539315597 
Al 2.0285484482 6.0943376093 12.1624613672 
Al 2.0330586255 4.0914198594 14.1697009074 
Al 16.2237043669 6.0981683231 14.1954072779 
Al 0.0000619137 8.1167481310 0.0000000000 
Al 2.0284330875 10.1397508020 0.0000000000 
Al 2.0288426707 8.1170063695 2.0289389809 
Al 16.2276504414 10.1394925635 2.0289389809 
Al 16.2279705936 8.1151934084 4.0589072115 
Al 2.0285246352 10.1413071122 4.0589093283 
Al 2.0287537689 8.1153161775 6.0871857793 
Al 16.2277435766 10.1411854014 6.0871852501 
Al 16.2277218803 8.1143117991 8.1139995846 
Al 2.0287765235 10.1421897798 8.1139995846 
Al 2.0287537689 8.1153161775 10.1408128607 
Al 16.2277435766 10.1411854014 10.1408133898 
Al 16.2279705936 8.1151934084 12.1690914284 
Al 2.0285246352 10.1413071122 12.1690898409 
Al 2.0288426707 8.1170063695 14.1990596590 
Al 16.2276504414 10.1394925635 14.1990596590 
Al 0.0000777890 12.1666349878 0.0000000000 
Al 2.0540362685 14.1721568188 0.0000000000 
Al 2.0327908618 12.1583316682 2.0325934788 
Al 16.2234376616 14.1650827779 2.0582945575 
Al 16.2279473098 12.1621623820 4.0655372728 
Al 2.0323050772 14.1878564483 4.0740676094 
Al 2.0286246497 12.1685527260 6.0880710928 
Al 16.2279351387 14.1980902064 6.0898464823 
Al 16.2277335222 12.1697264411 8.1139995846 
Al 2.0289273390 14.1981134902 8.1139995846 
Al 2.0286246497 12.1685527260 10.1399275472 
Al 16.2279351387 14.1980902064 10.1381521576 
Al 16.2279473098 12.1621623820 12.1624618963 
Al 2.0323050772 14.1878564483 12.1539310305 
Al 2.0327908618 12.1583316682 14.1954051612 
Al 16.2234376616 14.1650827779 14.1697040825 
Al 4.0843426433 16.2024621353 0.0000000000 
Al 6.0898628868 2.0284161538 0.0000000000 
Al 6.0981683231 16.2237043669 2.0325918912 
Al 4.0914198594 2.0330586255 2.0582982618 
Al 4.0686419555 16.2241912099 4.0740670803 
Al 6.0943376093 2.0285484482 4.0655372728 
Al 6.0879462070 16.2278721666 6.0880689761 
Al 4.0584071391 2.0285606192 6.0898448948 
Al 4.0583822677 16.2275673605 8.1139995846 
Al 6.0867751378 2.0287648816 8.1139995846 
Al 6.0879462070 16.2278721666 10.1399296639 
Al 4.0584071391 2.0285606192 10.1381542743 
Al 4.0686419555 16.2241912099 12.1539315597 
Al 6.0943376093 2.0285484482 12.1624613672 
Al 6.0981683231 16.2237043669 14.1954072779 
Al 4.0914198594 2.0330586255 14.1697009074 
Al 4.0901524799 4.0901524799 0.0000000000 
Al 6.0944079899 6.0944079899 0.0000000000 
Al 6.0973957244 4.0624849787 2.0329178644 
Al 4.0624849787 6.0973957244 2.0329178644 
Al 4.0627384545 4.0627384545 4.0684302846 
Al 6.0864084180 6.0864084180 4.0577678930 
Al 6.0865661128 4.0568862838 6.0867349203 
Al 4.0568862838 6.0865661128 6.0867349203 
Al 4.0576668202 4.0576668202 8.1139995846 
Al 6.0859141665 6.0859141665 8.1139995846 
Al 6.0865661128 4.0568862838 10.1412637196 
Al 4.0568862838 6.0865661128 10.1412637196 
Al 4.0627384545 4.0627384545 12.1595683553 
Al 6.0864084180 6.0864084180 12.1702307470 
Al 6.0973957244 4.0624849787 14.1950807756 
Al 4.0624849787 6.0973957244 14.1950807756 
Al 4.0577255588 8.1170550538 0.0000000000 
Al 6.0876091211 10.1411901640 0.0000000000 
Al 6.0869651124 8.1152918353 2.0287998073 
Al 4.0585023910 10.1411854014 2.0290638668 
Al 4.0572720540 8.1152648473 4.0584822822 
Al 6.0856665115 10.1425707873 4.0572921627 
Al 6.0854770661 8.1138455940 6.0854738910 
Al 4.0571080090 10.1426887939 6.0856437569 
Al 4.0578134022 8.1144388017 8.1139995846 
Al 6.0861893386 10.1423495913 8.1139995846 
Al 6.0854770661 8.1138455940 10.1425247489 
Al 4.0571080090 10.1426887939 10.1423548830 
Al 4.0572720540 8.1152648473 12.1695163577 
Al 6.0856665115 10.1425707873 12.1707064773 
Al 6.0869651124 8.1152918353 14.1991988326 
Al 4.0585023910 10.1411854014 14.1989347732 
Al 4.0646911185 12.1601340458 0.0000000000 
Al 6.0963675331 14.1918088729 0.0000000000 
Al 6.0880393422 12.1684627659 2.0289045844 
Al 4.0702675879 14.1862324035 2.0358415685 
Al 4.0578282192 12.1691512255 4.0587188245 
Al 6.0873487659 14.1986701846 4.0587172369 
Al 6.0852246486 12.1712732261 6.0852389364 
Al 4.0582526193 14.1982436678 6.0878588927 
Al 4.0575652181 12.1704233675 8.1139995846 
Al 6.0860734488 14.1989310690 8.1139995846 
Al 6.0852246486 12.1712732261 10.1427602328 
Al 4.0582526193 14.1982436678 10.1401402764 
Al 4.0578282192 12.1691512255 12.1692798155 
Al 6.0873487659 14.1986701846 12.1692814030 
Al 6.0880393422 12.1684627659 14.1990945847 
Al 4.0702675879 14.1862324035 14.1921576007 
Al 8.1167481310 0.0000619137 0.0000000000 
Al 10.1397508020 2.0284330875 0.0000000000 
Al 10.1394925635 16.2276504414 2.0289389809 
Al 8.1170063695 2.0288426707 2.0289389809 
Al 8.1151934084 16.2279705936 4.0589072115 
Al 10.1413071122 2.0285246352 4.0589093283 
Al 10.1411854014 16.2277435766 6.0871852501 
Al 8.1153161775 2.0287537689 6.0871857793 
Al 8.1143117991 16.2277218803 8.1139995846 
Al 10.1421897798 2.0287765235 8.1139995846 
Al 10.1411854014 16.2277435766 10.1408133898 
Al 8.1153161775 2.0287537689 10.1408128607 
Al 8.1151934084 16.2279705936 12.1690914284 
Al 10.1413071122 2.0285246352 12.1690898409 
Al 10.1394925635 16.2276504414 14.1990596590 
Al 8.1170063695 2.0288426707 14.1990596590 
Al 8.1170550538 4.0577255588 0.0000000000 
Al 10.1411901640 6.0876091211 0.0000000000 
Al 10.1411854014 4.0585023910 2.0290638668 
Al 8.1152918353 6.0869651124 2.0287998073 
Al 8.1152648473 4.0572720540 4.0584822822 
Al 10.1425707873 6.0856665115 4.0572921627 
Al 10.1426887939 4.0571080090 6.0856437569 
Al 8.1138455940 6.0854770661 6.0854738910 
Al 8.1144388017 4.0578134022 8.1139995846 
Al 10.1423495913 6.0861893386 8.1139995846 
Al 10.1426887939 4.0571080090 10.1423548830 
Al 8.1138455940 6.0854770661 10.1425247489 
Al 8.1152648473 4.0572720540 12.1695163577 
Al 10.1425707873 6.0856665115 12.1707064773 
Al 10.1411854014 4.0585023910 14.1989347732 
Al 8.1152918353 6.0869651124 14.1991988326 
Al 8.1152955396 8.1152955396 0.0000000000 
Al 10.1412086852 10.1412086852 0.0000000000 
Al 10.1423051404 8.1141990844 2.0289585605 
Al 8.1141990844 10.1423051404 2.0289585605 
Al 8.1138879282 8.1138879282 4.0572138445 
Al 10.1426131215 10.1426131215 4.0572106694 
Al 10.1422612187 8.1142366560 6.0859210458 
Al 8.1142366560 10.1422612187 6.0859210458 
Al 8.1140911322 8.1140911322 8.1139995846 
Al 10.1424056841 10.1424056841 8.1139995846 
Al 10.1422612187 8.1142366560 10.1420775942 
Al 8.1142366560 10.1422612187 10.1420775942 
Al 8.1138879282 8.1138879282 12.1707847955 
Al 10.1426131215 10.1426131215 12.1707879706 
Al 10.1423051404 8.1141990844 14.1990400795 
Al 8.1141990844 10.1423051404 14.1990400795 
Al 8.1153140608 12.1688924578 0.0000000000 
Al 10.1394449376 14.1987691407 0.0000000000 
Al 10.1412097436 12.1695338206 2.0287971614 
Al 8.1153156483 14.1979949545 2.0290622792 
Al 8.1139302624 12.1708334798 4.0572900460 
Al 10.1412356732 14.1992258207 4.0584796364 
Al 10.1426543973 12.1710229252 6.0854701868 
Al 8.1138117267 14.1993903948 6.0856411110 
Al 8.1141477542 12.1703085360 8.1139995846 
Al 10.1420638356 14.1986871183 8.1139995846 
Al 10.1426543973 12.1710229252 10.1425284532 
Al 8.1138117267 14.1993903948 10.1423575289 
Al 8.1139302624 12.1708334798 12.1707091232 
Al 10.1412356732 14.1992258207 12.1695195328 
Al 10.1412097436 12.1695338206 14.1992020077 
Al 8.1153156483 14.1979949545 14.1989363607 
Al 12.1666349878 0.0000777890 0.0000000000 
Al 14.1721568188 2.0540362685 0.0000000000 
Al 14.1650827779 16.2234376616 2.0582945575 
Al 12.1583316682 2.0327908618 2.0325934788 
Al 12.1621623820 16.2279473098 4.0655372728 
Al 14.1878564483 2.0323050772 4.0740676094 
Al 14.1980902064 16.2279351387 6.0898464823 
Al 12.1685527260 2.0286246497 6.0880710928 
Al 12.1697264411 16.2277335222 8.1139995846 
Al 14.1981134902 2.0289273390 8.1139995846 
Al 14.1980902064 16.2279351387 10.1381521576 
Al 12.1685527260 2.0286246497 10.1399275472 
Al 12.1621623820 16.2279473098 12.1624618963 
Al 14.1878564483 2.0323050772 12.1539310305 
Al 14.1650827779 16.2234376616 14.1697040825 
Al 12.1583316682 2.0327908618 14.1954051612 
Al 12.1601340458 4.0646911185 0.0000000000 
Al 14.1918088729 6.0963675331 0.0000000000 
Al 14.1862324035 4.0702675879 2.0358415685 
Al 12.1684627659 6.0880393422 2.0289045844 
Al 12.1691512255 4.0578282192 4.0587188245 
Al 14.1986701846 6.0873487659 4.0587172369 
Al 14.1982436678 4.0582526193 6.0878588927 
Al 12.1712732261 6.0852246486 6.0852389364 
Al 12.1704233675 4.0575652181 8.1139995846 
Al 14.1989310690 6.0860734488 8.1139995846 
Al 14.1982436678 4.0582526193 10.1401402764 
Al 12.1712732261 6.0852246486 10.1427602328 
Al 12.1691512255 4.0578282192 12.1692798155 
Al 14.1986701846 6.0873487659 12.1692814030 
Al 14.1862324035 4.0702675879 14.1921576007 
Al 12.1684627659 6.0880393422 14.1990945847 
Al 12.1688924578 8.1153140608 0.0000000000 
Al 14.1987691407 10.1394449376 0.0000000000 
Al 14.1979949545 8.1153156483 2.0290622792 
Al 12.1695338206 10.1412097436 2.0287971614 
Al 12.1708334798 8.1139302624 4.0572900460 
Al 14.1992258207 10.1412356732 4.0584796364 
Al 14.1993903948 8.1138117267 6.0856411110 
Al 12.1710229252 10.1426543973 6.0854701868 
Al 12.1703085360 8.1141477542 8.1139995846 
Al 14.1986871183 10.1420638356 8.1139995846 
Al 14.1993903948 8.1138117267 10.1423575289 
Al 12.1710229252 10.1426543973 10.1425284532 
Al 12.1708334798 8.1139302624 12.1707091232 
Al 14.1992258207 10.1412356732 12.1695195328 
Al 14.1979949545 8.1153156483 14.1989363607 
Al 12.1695338206 10.1412097436 14.1992020077 
Al 12.1620904139 12.1620904139 0.0000000000 
Al 14.1663538615 14.1663538615 0.0000000000 
Al 14.1940102501 12.1591026794 2.0329162768 
Al 12.1591026794 14.1940102501 2.0329162768 
Al 12.1700899858 12.1700899858 4.0577647179 
Al 14.1937594201 14.1937594201 4.0684302846 
Al 14.1996137076 12.1699344077 6.0867349203 
Al 12.1699344077 14.1996137076 6.0867349203 
Al 12.1705884708 12.1705884708 8.1139995846 
Al 14.1988331712 14.1988331712 8.1139995846 
Al 14.1996137076 12.1699344077 10.1412642488 
Al 12.1699344077 14.1996137076 10.1412642488 
Al 12.1700899858 12.1700899858 12.1702339220 
Al 14.1937594201 14.1937594201 12.1595688845 
Al 14.1940102501 12.1591026794 14.1950823631 
Al 12.1591026794 14.1940102501 14.1950823631 

