Al 
 1.0000000000000000
     4.0424206272828416    0.0000000000000000    0.0000000000000000
     0.0000000000000000    4.0424206272828416    0.0000000000000000
     0.0000000000000000    0.0000000000000000    4.0424206272828416
   4
Cartesian
  0.0000000000000000  0.0000000000000000  0.0000000000000000
  0.0000000000000000  2.0212103136414203  2.0212103136414203
  2.0212103136414203  0.0000000000000000  2.0212103136414203
  2.0212103136414203  2.0212103136414203  0.0000000000000000
