Al 
 1.0000000000000000
     4.0436167690686222    0.0000000000000000    0.0000000000000000
     0.0000000000000000    4.0436167690686222    0.0000000000000000
     0.0000000000000000    0.0000000000000000    4.0436167690686222
   4
Cartesian
  0.0000000000000000  0.0000000000000000  0.0000000000000000
  0.0000000000000000  2.0218083845343107  2.0218083845343107
  2.0218083845343107  0.0000000000000000  2.0218083845343107
  2.0218083845343107  2.0218083845343107  0.0000000000000000
