Al 
 1.0000000000000000
     4.0436161335753651    0.0000000000000000    0.0000000000000000
     0.0000000000000000    4.0436161335753651    0.0000000000000000
     0.0000000000000000    0.0000000000000000    4.0436161335753651
   4
Cartesian
  0.0000000000000000  0.0000000000000000  0.0000000000000000
  0.0000000000000000  2.0218080667876821  2.0218080667876821
  2.0218080667876821  0.0000000000000000  2.0218080667876821
  2.0218080667876821  2.0218080667876821  0.0000000000000000
