Al 
 1.0000000000000000
     4.0422863628005814    0.0000000000000000    0.0000000000000000
     0.0000000000000000    4.0422863628005814    0.0000000000000000
     0.0000000000000000    0.0000000000000000    4.0422863628005814
   4
Cartesian
  0.0000000000000000  0.0000000000000000  0.0000000000000000
  0.0000000000000000  2.0211431814002903  2.0211431814002903
  2.0211431814002903  0.0000000000000000  2.0211431814002903
  2.0211431814002903  2.0211431814002903  0.0000000000000000
