&CONTROL
  calculation = 'scf'
  outdir = './out/'
  prefix = 'aiida'
  pseudo_dir = '/users/aglensk/Dropbox/Albert/scripts/dotfiles/scripts/potentials/quantum_espresso/pseudo_SSSPefV1.1_alalloy'
  tprnfor = .true.             	! calculate the pressure of the cell
  tstress = .true.
  verbosity = 'high'
  wf_collect = .true.
  etot_conv_thr = 2.5d-4    ! EDIFFG positive atomic units
  forc_conv_thr = 2.0d-5
/
&SYSTEM
  degauss =   4.4100000000d-02  ! SIGMA in Rydberg  so, 0.60001101eV
  ecutrho = 400                 ! AUGMENTATION charges
  ecutwfc =  40                 ! ENCUT in Rydberg, so 544eV
  ibrav = 0                     ! no symmetry
   nat              = 22
   ntyp             = 2
  occupations = 'smearing'      ! using smearing 
  smearing = 'mp'               ! methfessel paxton
  nosym= .true. 		! no symmetry
/
&ELECTRONS
  conv_thr =   1.0000000000d-12   	! EDIFF
  mixing_beta =   4.0000000000d-01      ! MIXING
  mixing_mode = 'local-TF'                 ! MIXING
/
&IONS
  !press_conv_thr = 0.05                 ! just for volume relaxations
/
ATOMIC_SPECIES
Mg 24.305 Mg.pbe-n-kjpaw_psl.0.3.0.UPF
Si 28.085 Si.pbe-n-rrkjus_psl.1.0.0.UPF

K_POINTS automatic
6 20 13 0 0 0
CELL_PARAMETERS angstrom
14.23147176318435 0.00000000000000 -5.14441689040759
0.00000000000000 4.08062993603626 0.00000000000000
0.01423169190090 0.00000000000000 6.92248618524358

ATOMIC_POSITIONS angstrom
Mg 0.0343441301 0.0000000000 6.8344522645 
Mg 1.1357079582 2.0403147034 2.0926048203 
Mg 2.2602571566 2.0403147034 5.5671739180 
Mg 4.9099210056 0.0000000000 -1.3935119825 
Mg 6.0344225780 0.0000000000 2.0811274958 
Si 0.8499152221 0.0000000000 4.2479737620 
Si 2.7641598053 0.0000000000 0.7054757733 
Si 3.0062567916 0.0000000000 3.2104937943 
Si 4.1638181811 2.0403147034 0.9632030669 
Si 4.4059289260 2.0403147034 3.4682126211 
Si 6.3201459919 2.0403147034 -0.0742816634 
Mg 7.1500731324 2.0403147034 4.2617429531 
Mg 8.2515375042 0.0000000000 -0.4801928637 
Mg 9.3760332557 0.0000000000 2.9945958426 
Mg 12.0256166697 2.0403147034 -3.9653523850 
Mg 13.1500642661 2.0403147034 -0.4904927689 
Si 7.9656378743 2.0403147034 1.6752692132 
Si 9.8799983472 2.0403147034 -1.8670419760 
Si 10.1220164861 2.0403147034 0.6379823952 
Si 11.2795307789 0.0000000000 -1.6087045411 
Si 11.5215616180 0.0000000000 0.8963113632 
Si 13.4358951029 0.0000000000 -2.6459945341 

