Al 
 1.0000000000000000
     4.0408230153014744    0.0000000000000000    0.0000000000000000
     0.0000000000000000    4.0408230153014744    0.0000000000000000
     0.0000000000000000    0.0000000000000000    4.0408230153014744
   4
Cartesian
  0.0000000000000000  0.0000000000000000  0.0000000000000000
  0.0000000000000000  2.0204115076507367  2.0204115076507367
  2.0204115076507367  0.0000000000000000  2.0204115076507367
  2.0204115076507367  2.0204115076507367  0.0000000000000000
