 NPAR = 1

 ISMEAR = 1
 SIGMA  = 0.1
 EDIFF  = 1E-6
 ICHARG = 11
 LORBIT = 12
 RWIGS  = 1.7

 NBANDS  = 18
 PREC   = Accurate
 ALGO   = Fast

 LWAVE  = T
 LCHARG = T
