K-Points
 40
Line-mode
rec
 0.0 0.0 0.0
 0.50 0.0 0.0

 0.50 0.0 0.0
 0.50 0.50 0.0

 0.50 0.50 0.0
 0.50 0.50 0.50

 0.50 0.50 0.50
 0.0 0.0 0.0
