Ti optimization
3.2532000
1.0 0.0 0.0
0.0 1.0 0.0
0.0 0.0 1.0
2
D
0.0 0.0 0.0
0.5 0.5 0.5
