Al 
 1.0000000000000000
     4.0435500134692202    0.0000000000000000    0.0000000000000000
     0.0000000000000000    4.0435500134692202    0.0000000000000000
     0.0000000000000000    0.0000000000000000    4.0435500134692202
   4
Cartesian
  0.0000000000000000  0.0000000000000000  0.0000000000000000
  0.0000000000000000  2.0217750067346096  2.0217750067346096
  2.0217750067346096  0.0000000000000000  2.0217750067346096
  2.0217750067346096  2.0217750067346096  0.0000000000000000
