Al 
 1.0000000000000000
     4.0435500134692202    0.0000000000000000    0.0000000000000000
     0.0000000000000000    4.0435500134692202    0.0000000000000000
     0.0000000000000000    0.0000000000000000    4.0435500134692202
   4
Direct
  0.0000000000000000  0.0000000000000000  0.0000000000000000
  0.0000000000000000  0.4999999999999999  0.4999999999999999
  0.4999999999999999  0.0000000000000000  0.4999999999999999
  0.4999999999999999  0.4999999999999999  0.0000000000000000
