&CONTROL
  calculation = 'scf'
  outdir = './out/'
  prefix = 'aiida'
  pseudo_dir = '/users/aglensk/Dropbox/Albert/scripts/dotfiles/scripts/potentials/quantum_espresso/pseudo_SSSPefV1.1_alalloy'
  tprnfor = .true.             	! calculate the pressure of the cell
  tstress = .true.
  verbosity = 'high'
  wf_collect = .true.
  etot_conv_thr = 2.5d-4    ! EDIFFG positive atomic units
  forc_conv_thr = 2.0d-5
/
&SYSTEM
  degauss =   4.4100000000d-02  ! SIGMA in Rydberg  so, 0.60001101eV
  ecutrho = 400                 ! AUGMENTATION charges
  ecutwfc =  40                 ! ENCUT in Rydberg, so 544eV
  ibrav = 0                     ! no symmetry
   nat              = 22
   ntyp             = 3
  occupations = 'smearing'      ! using smearing 
  smearing = 'mp'               ! methfessel paxton
  nosym= .true. 		! no symmetry
/
&ELECTRONS
  conv_thr =   1.0000000000d-12   	! EDIFF
  mixing_beta =   4.0000000000d-01      ! MIXING
  mixing_mode = 'local-TF'                 ! MIXING
/
&IONS
  !press_conv_thr = 0.05                 ! just for volume relaxations
/
ATOMIC_SPECIES
Al 26.9815385 Al.pbe-n-kjpaw_psl.1.0.0.UPF
Mg 24.305 Mg.pbe-n-kjpaw_psl.0.3.0.UPF
Si 28.085 Si.pbe-n-rrkjus_psl.1.0.0.UPF

K_POINTS automatic
6 20 13 0 0 0
CELL_PARAMETERS angstrom
14.49965983185253 0.00000000000000 -4.31021135213054
0.00000000000000 4.12158666460227 0.00000000000000
0.01449945556945 0.00000000000000 6.64123378960100

ATOMIC_POSITIONS angstrom
Al 0.0349542715 0.0000000000 6.5576894083 
Mg 1.0685267946 2.0607933323 1.9099788856 
Mg 2.2549717347 2.0607933323 5.3158258557 
Mg 5.0503069569 0.0000000000 -0.9973508723 
Mg 6.2367630097 0.0000000000 2.4085664784 
Si 0.8662133510 0.0000000000 4.0829059272 
Si 2.6684464648 0.0000000000 0.5752087486 
Al 3.1901569850 0.0000000000 3.0948945035 
Al 4.1150666722 2.0607933323 1.2235725423 
Si 4.6367163369 2.0607933323 3.7432498304 
Si 6.4389886099 2.0607933323 0.2356113904 
Al 7.2847852457 2.0607933323 4.4020770451 
Mg 8.3182762756 0.0000000000 -0.2456276567 
Mg 9.5046471308 0.0000000000 3.1605479325 
Mg 12.3002898051 2.0607933323 -3.1522790094 
Mg 13.4866733605 2.0607933323 0.2539632561 
Si 8.1159956410 2.0607933323 1.9272835096 
Si 9.9183594616 2.0607933323 -1.5801062171 
Al 10.4399763173 2.0607933323 0.9396282222 
Al 11.3649077008 0.0000000000 -0.9313672367 
Si 11.8864637012 0.0000000000 1.5883576773 
Si 13.6888656225 0.0000000000 -1.9189759566 

