&CONTROL
  calculation = 'scf'
  outdir = './out/'
  prefix = 'aiida'
  pseudo_dir = '/users/aglensk/Dropbox/Albert/scripts/dotfiles/scripts/potentials/quantum_espresso/pseudo_SSSPefV1.1_alalloy'
  tprnfor = .true.             	! calculate the pressure of the cell
  tstress = .true.
  verbosity = 'high'
  wf_collect = .true.
  etot_conv_thr = 2.5d-4    ! EDIFFG positive atomic units
  forc_conv_thr = 2.0d-5
/
&SYSTEM
  degauss =   4.4100000000d-02  ! SIGMA in Rydberg  so, 0.60001101eV
  ecutrho = 400                 ! AUGMENTATION charges
  ecutwfc =  40                 ! ENCUT in Rydberg, so 544eV
  ibrav = 0                     ! no symmetry
   nat              = 22
   ntyp             = 2
  occupations = 'smearing'      ! using smearing 
  smearing = 'mp'               ! methfessel paxton
  nosym= .true. 		! no symmetry
/
&ELECTRONS
  conv_thr =   1.0000000000d-12   	! EDIFF
  mixing_beta =   4.0000000000d-01      ! MIXING
  mixing_mode = 'local-TF'                 ! MIXING
/
&IONS
  !press_conv_thr = 0.05                 ! just for volume relaxations
/
ATOMIC_SPECIES
Mg 24.305 Mg.pbe-n-kjpaw_psl.0.3.0.UPF
Si 28.085 Si.pbe-n-rrkjus_psl.1.0.0.UPF

K_POINTS automatic
6 20 13 0 0 0
CELL_PARAMETERS angstrom
14.11229523441606 0.00000000000000 -3.84880798363246
0.00000000000000 4.05703339504001 0.00000000000000
0.00000000000000 0.00000000000000 6.89578072813526

ATOMIC_POSITIONS angstrom
Mg 0.0198917713 0.0000000000 4.6804792922 
Mg 1.1237321488 2.0285166975 0.0105142220 
Mg 2.1994716288 2.0285166975 3.5805474177 
Mg 4.8963984111 0.0000000000 3.8562042935 
Mg 5.9721876338 0.0000000000 0.5303588633 
Si 0.7993512813 0.0000000000 2.1514308049 
Si 2.7429154570 0.0000000000 5.6719769354 
Si 2.9970454039 0.0000000000 1.2902605127 
Si 4.0990082606 2.0285166975 -0.7493382140 
Si 4.3530397805 2.0285166975 1.7647626047 
Si 6.2967134958 2.0285166975 -1.6104730513 
Mg 7.0759195299 2.0285166975 2.7562094469 
Mg 8.1803457065 0.0000000000 -1.9136376169 
Mg 9.2558523486 0.0000000000 1.6562585219 
Mg 11.9523071048 2.0285166975 1.9317375942 
Mg 13.0278756606 2.0285166975 -1.3942745269 
Si 7.8555922983 2.0285166975 0.2272038229 
Si 9.7989765537 2.0285166975 3.7475800875 
Si 10.0533419845 2.0285166975 -0.6341029971 
Si 11.1550254356 0.0000000000 -2.6737223616 
Si 11.4092823850 0.0000000000 -0.1595882048 
Si 13.3527603048 0.0000000000 -3.5350439985 

