&CONTROL
  calculation = 'scf'
  outdir = './out/'
  prefix = 'aiida'
  pseudo_dir = '/users/aglensk/Dropbox/Albert/scripts/dotfiles/scripts/potentials/quantum_espresso/pseudo_SSSPefV1.1_alalloy'
  tprnfor = .true.             	! calculate the pressure of the cell
  tstress = .true.
  verbosity = 'high'
  wf_collect = .true.
  etot_conv_thr = 2.5d-4    ! EDIFFG positive atomic units
  forc_conv_thr = 2.0d-5
/
&SYSTEM
  degauss =   4.4100000000d-02  ! SIGMA in Rydberg  so, 0.60001101eV
  ecutrho = 400                 ! AUGMENTATION charges
  ecutwfc =  40                 ! ENCUT in Rydberg, so 544eV
  ibrav = 0                     ! no symmetry
   nat              = 256
   ntyp             = 3
  occupations = 'smearing'      ! using smearing 
  smearing = 'mp'               ! methfessel paxton
  nosym= .true. 		! no symmetry
/
&ELECTRONS
  conv_thr =   1.0000000000d-12   	! EDIFF
  mixing_beta =   4.0000000000d-01      ! MIXING
  mixing_mode = 'local-TF'                 ! MIXING
/
&IONS
  !press_conv_thr = 0.05                 ! just for volume relaxations
/
ATOMIC_SPECIES
Mg 24.305 Mg.pbe-n-kjpaw_psl.0.3.0.UPF
Al 26.9815385 Al.pbe-n-kjpaw_psl.1.0.0.UPF
Si 28.085 Si.pbe-n-rrkjus_psl.1.0.0.UPF

K_POINTS automatic
5 5 5 0 0 0
CELL_PARAMETERS angstrom
16.22799863997135 0.00000000000000 0.00000000000000
0.00000000000000 16.22799863997135 0.00000000000000
0.00000000000000 0.00000000000000 16.22799863997135

ATOMIC_POSITIONS angstrom
Mg 0.0187212314 0.0187212314 0.0000000000 
Al 2.0538828071 0.0083811087 2.0447047576 
Si 2.0462129126 2.0462129126 0.0000000000 
Al 0.0083811087 2.0538828071 2.0447047576 
Al 0.0001608699 0.0001608699 4.0578689659 
Al 2.0300449613 2.0300449613 4.0568010862 
Al 2.0284341459 0.0001005437 6.0860670987 
Al 0.0001005437 2.0284341459 6.0860670987 
Al 16.2279118549 16.2279118549 8.1139995846 
Al 2.0284262082 2.0284262082 8.1139995846 
Al 2.0284341459 0.0001005437 10.1419315413 
Al 0.0001005437 2.0284341459 10.1419315413 
Al 0.0001608699 0.0001608699 12.1701302033 
Al 2.0300449613 2.0300449613 12.1711980829 
Al 2.0538828071 0.0083811087 14.1832938824 
Al 0.0083811087 2.0538828071 14.1832938824 
Al 0.0118271107 4.0476394412 0.0000000000 
Al 2.0284796551 6.0815574505 0.0000000000 
Al 2.0295083756 4.0481596224 2.0172102972 
Al 0.0002148459 6.0852230610 2.0283796406 
Al 0.0002455382 4.0590199263 4.0579091833 
Al 2.0284674840 6.0835455693 4.0552590639 
Al 2.0284135080 4.0571355262 6.0848140071 
Al 0.0001365277 6.0854760078 6.0856019519 
Al 16.2278975671 4.0574895458 8.1139995846 
Al 2.0285981908 6.0852262361 8.1139995846 
Al 2.0284135080 4.0571355262 10.1431851621 
Al 0.0001365277 6.0854760078 10.1423972172 
Al 0.0002455382 4.0590199263 12.1700894566 
Al 2.0284674840 6.0835455693 12.1727401053 
Al 2.0295083756 4.0481596224 14.2107888719 
Al 0.0002148459 6.0852230610 14.1996189993 
Al 0.0000238130 8.1131439050 0.0000000000 
Al 2.0285362771 10.1410467570 0.0000000000 
Al 2.0284632506 8.1130200776 2.0283431274 
Al 16.2278742833 10.1412679531 2.0285775529 
Al 0.0001513447 8.1139646589 4.0571566933 
Al 2.0284076870 10.1425527953 4.0569349681 
Al 2.0285759654 8.1141133577 6.0856321150 
Al 16.2279875272 10.1424263220 6.0857120208 
Al 0.0000005292 8.1141170619 8.1139995846 
Al 2.0285664402 10.1425226322 8.1139995846 
Al 2.0285759654 8.1141133577 10.1423665249 
Al 16.2279875272 10.1424263220 10.1422871484 
Al 0.0001513447 8.1139646589 12.1708419466 
Al 2.0284076870 10.1425527953 12.1710636719 
Al 2.0284632506 8.1130200776 14.1996560418 
Al 16.2278742833 10.1412679531 14.1994210871 
Al 0.0000423342 12.1691522838 0.0000000000 
Al 2.0513708029 14.1808882428 0.0000000000 
Al 2.0298444031 12.1672694713 2.0298840914 
Al 0.0006048496 14.1794197760 2.0500399222 
Al 0.0000857267 12.1690845491 4.0587632753 
Al 2.0299015543 14.1997629356 4.0600179545 
Al 2.0283854616 12.1704953356 6.0856601614 
Al 0.0001153606 14.1997613480 6.0868492226 
Al 16.2279700644 12.1704561765 8.1139995846 
Al 2.0284479045 14.1998835880 8.1139995846 
Al 2.0283854616 12.1704953356 10.1423384786 
Al 0.0001153606 14.1997613480 10.1411494174 
Al 0.0000857267 12.1690845491 12.1692353646 
Al 2.0299015543 14.1997629356 12.1679806855 
Al 2.0298444031 12.1672694713 14.1981145485 
Al 0.0006048496 14.1794197760 14.1779587178 
Al 4.0476394412 0.0118271107 0.0000000000 
Al 6.0815574505 2.0284796551 0.0000000000 
Al 6.0852230610 0.0002148459 2.0283796406 
Al 4.0481596224 2.0295083756 2.0172102972 
Al 4.0590199263 0.0002455382 4.0579091833 
Al 6.0835455693 2.0284674840 4.0552590639 
Al 6.0854760078 0.0001365277 6.0856019519 
Al 4.0571355262 2.0284135080 6.0848140071 
Al 4.0574895458 16.2278975671 8.1139995846 
Al 6.0852262361 2.0285981908 8.1139995846 
Al 6.0854760078 0.0001365277 10.1423972172 
Al 4.0571355262 2.0284135080 10.1431851621 
Al 4.0590199263 0.0002455382 12.1700894566 
Al 6.0835455693 2.0284674840 12.1727401053 
Al 6.0852230610 0.0002148459 14.1996189993 
Al 4.0481596224 2.0295083756 14.2107888719 
Al 4.0477024133 4.0477024133 0.0000000000 
Al 6.0833084979 6.0833084979 0.0000000000 
Al 6.0842382623 4.0572588245 2.0285839030 
Al 4.0572588245 6.0842382623 2.0285839030 
Al 4.0566264578 4.0566264578 4.0552712349 
Al 6.0861247790 6.0861247790 4.0576435364 
Al 6.0852061274 4.0567936778 6.0853606471 
Al 4.0567936778 6.0852061274 6.0853606471 
Al 4.0572323657 4.0572323657 8.1139995846 
Al 6.0855818432 6.0855818432 8.1139995846 
Al 6.0852061274 4.0567936778 10.1426379929 
Al 4.0567936778 6.0852061274 10.1426379929 
Al 4.0566264578 4.0566264578 12.1727274050 
Al 6.0861247790 6.0861247790 12.1703551036 
Al 6.0842382623 4.0572588245 14.1994147369 
Al 4.0572588245 6.0842382623 14.1994147369 
Al 4.0573614849 8.1131010417 0.0000000000 
Al 6.0852251778 10.1424294970 0.0000000000 
Al 6.0851801977 8.1138704653 2.0283362481 
Al 4.0574159902 10.1425760791 2.0285420980 
Al 4.0569836524 8.1140085806 4.0568719960 
Al 6.0853638222 10.1425549120 4.0568074364 
Al 6.0856125355 8.1140646734 6.0856903245 
Al 4.0568688209 10.1426046547 6.0856014227 
Al 4.0571916190 8.1141435208 8.1139995846 
Al 6.0856760367 10.1423575289 8.1139995846 
Al 6.0856125355 8.1140646734 10.1423083155 
Al 4.0568688209 10.1426046547 10.1423972172 
Al 4.0569836524 8.1140085806 12.1711266440 
Al 6.0853638222 10.1425549120 12.1711912036 
Al 6.0851801977 8.1138704653 14.1996623919 
Al 4.0574159902 10.1425760791 14.1994570711 
Al 4.0589289078 12.1698539728 0.0000000000 
Al 6.0848002485 14.2014039141 0.0000000000 
Al 6.0851971314 12.1708535885 2.0281679697 
Al 4.0619351635 14.1988966725 2.0299618805 
Al 4.0569587811 12.1709477821 4.0569037466 
Al 6.0860845615 14.1990152082 4.0578731993 
Al 6.0853680556 12.1711493986 6.0854114481 
Al 4.0570519162 14.1999105760 6.0853474177 
Al 4.0571667477 12.1706789601 8.1139995846 
Al 6.0855029958 14.1994004492 8.1139995846 
Al 6.0853680556 12.1711493986 10.1425871918 
Al 4.0570519162 14.1999105760 10.1426512223 
Al 4.0569587811 12.1709477821 12.1710948933 
Al 6.0860845615 14.1990152082 12.1701254407 
Al 6.0851971314 12.1708535885 14.1998306702 
Al 4.0619351635 14.1988966725 14.1980367595 
Al 8.1131439050 0.0000238130 0.0000000000 
Al 10.1410467570 2.0285362771 0.0000000000 
Al 10.1412679531 16.2278742833 2.0285775529 
Al 8.1130200776 2.0284632506 2.0283431274 
Al 8.1139646589 0.0001513447 4.0571566933 
Al 10.1425527953 2.0284076870 4.0569349681 
Al 10.1424263220 16.2279875272 6.0857120208 
Al 8.1141133577 2.0285759654 6.0856321150 
Al 8.1141170619 0.0000005292 8.1139995846 
Al 10.1425226322 2.0285664402 8.1139995846 
Al 10.1424263220 16.2279875272 10.1422871484 
Al 8.1141133577 2.0285759654 10.1423665249 
Al 8.1139646589 0.0001513447 12.1708419466 
Al 10.1425527953 2.0284076870 12.1710636719 
Al 10.1412679531 16.2278742833 14.1994210871 
Al 8.1130200776 2.0284632506 14.1996560418 
Al 8.1131010417 4.0573614849 0.0000000000 
Al 10.1424294970 6.0852251778 0.0000000000 
Al 10.1425760791 4.0574159902 2.0285420980 
Al 8.1138704653 6.0851801977 2.0283362481 
Al 8.1140085806 4.0569836524 4.0568719960 
Al 10.1425549120 6.0853638222 4.0568074364 
Al 10.1426046547 4.0568688209 6.0856014227 
Al 8.1140646734 6.0856125355 6.0856903245 
Al 8.1141435208 4.0571916190 8.1139995846 
Al 10.1423575289 6.0856760367 8.1139995846 
Al 10.1426046547 4.0568688209 10.1423972172 
Al 8.1140646734 6.0856125355 10.1423083155 
Al 8.1140085806 4.0569836524 12.1711266440 
Al 10.1425549120 6.0853638222 12.1711912036 
Al 10.1425760791 4.0574159902 14.1994570711 
Al 8.1138704653 6.0851801977 14.1996623919 
Al 8.1142763443 8.1142763443 0.0000000000 
Al 10.1423247199 10.1423247199 0.0000000000 
Al 10.1424728896 8.1142239557 2.0286532252 
Al 8.1142239557 10.1424728896 2.0286532252 
Al 8.1139609546 8.1139609546 4.0571868564 
Al 10.1426776811 10.1426776811 4.0568979257 
Al 10.1423686417 8.1138233686 6.0853828726 
Al 8.1138233686 10.1423686417 6.0853828726 
Al 8.1137879137 8.1137879137 8.1139995846 
Al 10.1424009215 10.1424009215 8.1139995846 
Al 10.1423686417 8.1138233686 10.1426157674 
Al 8.1138233686 10.1423686417 10.1426157674 
Al 8.1139609546 8.1139609546 12.1708117835 
Al 10.1426776811 10.1426776811 12.1711012435 
Al 10.1424728896 8.1142239557 14.1993454147 
Al 8.1142239557 10.1424728896 14.1993454147 
Al 8.1141620420 12.1704794603 0.0000000000 
Al 10.1412679531 14.1998116199 0.0000000000 
Al 10.1425379784 12.1706313341 2.0283579444 
Al 8.1139757716 14.1997211306 2.0283552985 
Al 8.1140662609 12.1708197212 4.0571524599 
Al 10.1424612477 14.1996094742 4.0572069652 
Al 10.1425850751 12.1713409608 6.0852563992 
Al 8.1140450938 14.1993988616 6.0855855474 
Al 8.1138598818 12.1709673616 8.1139995846 
Al 10.1425099320 14.1994433125 8.1139995846 
Al 10.1425850751 12.1713409608 10.1427427699 
Al 8.1140450938 14.1993988616 10.1424136217 
Al 8.1140662609 12.1708197212 12.1708461801 
Al 10.1424612477 14.1996094742 12.1707916748 
Al 10.1425379784 12.1706313341 14.1996412248 
Al 8.1139757716 14.1997211306 14.1996433415 
Al 12.1691522838 0.0000423342 0.0000000000 
Al 14.1808882428 2.0513708029 0.0000000000 
Al 14.1794197760 0.0006048496 2.0500399222 
Al 12.1672694713 2.0298444031 2.0298840914 
Al 12.1690845491 0.0000857267 4.0587632753 
Al 14.1997629356 2.0299015543 4.0600179545 
Al 14.1997613480 0.0001153606 6.0868492226 
Al 12.1704953356 2.0283854616 6.0856601614 
Al 12.1704561765 16.2279700644 8.1139995846 
Al 14.1998835880 2.0284479045 8.1139995846 
Al 14.1997613480 0.0001153606 10.1411494174 
Al 12.1704953356 2.0283854616 10.1423384786 
Al 12.1690845491 0.0000857267 12.1692353646 
Al 14.1997629356 2.0299015543 12.1679806855 
Al 14.1794197760 0.0006048496 14.1779587178 
Al 12.1672694713 2.0298444031 14.1981145485 
Al 12.1698539728 4.0589289078 0.0000000000 
Al 14.2014039141 6.0848002485 0.0000000000 
Al 14.1988966725 4.0619351635 2.0299618805 
Al 12.1708535885 6.0851971314 2.0281679697 
Al 12.1709477821 4.0569587811 4.0569037466 
Al 14.1990152082 6.0860845615 4.0578731993 
Al 14.1999105760 4.0570519162 6.0853474177 
Al 12.1711493986 6.0853680556 6.0854114481 
Al 12.1706789601 4.0571667477 8.1139995846 
Al 14.1994004492 6.0855029958 8.1139995846 
Al 14.1999105760 4.0570519162 10.1426512223 
Al 12.1711493986 6.0853680556 10.1425871918 
Al 12.1709477821 4.0569587811 12.1710948933 
Al 14.1990152082 6.0860845615 12.1701254407 
Al 14.1988966725 4.0619351635 14.1980367595 
Al 12.1708535885 6.0851971314 14.1998306702 
Al 12.1704794603 8.1141620420 0.0000000000 
Al 14.1998116199 10.1412679531 0.0000000000 
Al 14.1997211306 8.1139757716 2.0283552985 
Al 12.1706313341 10.1425379784 2.0283579444 
Al 12.1708197212 8.1140662609 4.0571524599 
Al 14.1996094742 10.1424612477 4.0572069652 
Al 14.1993988616 8.1140450938 6.0855855474 
Al 12.1713409608 10.1425850751 6.0852563992 
Al 12.1709673616 8.1138598818 8.1139995846 
Al 14.1994433125 10.1425099320 8.1139995846 
Al 14.1993988616 8.1140450938 10.1424136217 
Al 12.1713409608 10.1425850751 10.1427427699 
Al 12.1708197212 8.1140662609 12.1708461801 
Al 14.1996094742 10.1424612477 12.1707916748 
Al 14.1997211306 8.1139757716 14.1996433415 
Al 12.1706313341 10.1425379784 14.1996412248 
Al 12.1690707905 12.1690707905 0.0000000000 
Al 14.1791128533 14.1791128533 0.0000000000 
Al 14.1982881187 12.1666169958 2.0299100211 
Al 12.1666169958 14.1982881187 2.0299100211 
Al 12.1708064918 12.1708064918 4.0571863273 
Al 14.1978870023 14.1978870023 4.0616504662 
Al 14.1995136931 12.1706593805 6.0855474467 
Al 12.1706593805 14.1995136931 6.0855474467 
Al 12.1710181627 12.1710181627 8.1139995846 
Al 14.1995671400 14.1995671400 8.1139995846 
Al 14.1995136931 12.1706593805 10.1424517225 
Al 12.1706593805 14.1995136931 10.1424517225 
Al 12.1708064918 12.1708064918 12.1708123127 
Al 14.1978870023 14.1978870023 12.1663487029 
Al 14.1982881187 12.1666169958 14.1980886189 
Al 12.1666169958 14.1982881187 14.1980886189 

