Al 
 1.0000000000000000
     4.0422006164016819    0.0000000000000000    0.0000000000000000
     0.0000000000000000    4.0422006164016819    0.0000000000000000
     0.0000000000000000    0.0000000000000000    4.0422006164016819
   4
Cartesian
  0.0000000000000000  0.0000000000000000  0.0000000000000000
  0.0000000000000000  2.0211003082008405  2.0211003082008405
  2.0211003082008405  0.0000000000000000  2.0211003082008405
  2.0211003082008405  2.0211003082008405  0.0000000000000000
