Al 
 1.0000000000000000
    16.1636984018896399    0.0000000000001569   -0.0000000000002760
     0.0000000000001569   16.1636984018889862   -0.0000000000002774
    -0.0000000000002760   -0.0000000000002774   16.1636984018888228
 256
Cartesian
  0.0000000000000000  0.0000000000000000  0.0000000000000000
 -0.0000000000000149  2.0204623002360886  2.0204623002360682
  2.0204623002361703 -0.0000000000000151  2.0204623002360687
  2.0204623002362245  2.0204623002361428 -0.0000000000000692
 -0.0000000000000690 -0.0000000000000693  4.0409246004722057
 -0.0000000000000839  2.0204623002360194  6.0613869007082730
  2.0204623002361015 -0.0000000000000844  6.0613869007082739
  2.0204623002361557  2.0204623002360740  4.0409246004721364
 -0.0000000000001380 -0.0000000000001387  8.0818492009444096
 -0.0000000000001529  2.0204623002359501 10.1023115011804787
  2.0204623002360322 -0.0000000000001538 10.1023115011804805
  2.0204623002360860  2.0204623002360043  8.0818492009443403
 -0.0000000000002070 -0.0000000000002080 12.1227738014166153
 -0.0000000000002219  2.0204623002358808 14.1432361016526844
  2.0204623002359634 -0.0000000000002231 14.1432361016526844
  2.0204623002360176  2.0204623002359350 12.1227738014165478
  0.0000000000000392  4.0409246004722466 -0.0000000000000693
  0.0000000000000243  6.0613869007083352  2.0204623002359989
  2.0204623002362094  4.0409246004722323  2.0204623002359989
  2.0204623002362636  6.0613869007083894 -0.0000000000001385
 -0.0000000000000298  4.0409246004721773  4.0409246004721364
 -0.0000000000000447  6.0613869007082659  6.0613869007082037
  2.0204623002361406  4.0409246004721631  6.0613869007082037
  2.0204623002361952  6.0613869007083201  4.0409246004720671
 -0.0000000000000988  4.0409246004721089  8.0818492009443403
 -0.0000000000001137  6.0613869007081966 10.1023115011804094
  2.0204623002360709  4.0409246004720929 10.1023115011804112
  2.0204623002361255  6.0613869007082508  8.0818492009442711
 -0.0000000000001678  4.0409246004720387 12.1227738014165460
 -0.0000000000001826  6.0613869007081274 14.1432361016526151
  2.0204623002360025  4.0409246004720236 14.1432361016526151
  2.0204623002360571  6.0613869007081806 12.1227738014164785
  0.0000000000000784  8.0818492009444913 -0.0000000000001387
  0.0000000000000636 10.1023115011805817  2.0204623002359292
  2.0204623002362490  8.0818492009444753  2.0204623002359297
  2.0204623002363027 10.1023115011806368 -0.0000000000002079
  0.0000000000000094  8.0818492009444221  4.0409246004720671
 -0.0000000000000054 10.1023115011805125  6.0613869007081345
  2.0204623002361801  8.0818492009444078  6.0613869007081345
  2.0204623002362343 10.1023115011805693  4.0409246004719979
 -0.0000000000000595  8.0818492009443528  8.0818492009442711
 -0.0000000000000744 10.1023115011804432 10.1023115011803402
  2.0204623002361104  8.0818492009443386 10.1023115011803419
  2.0204623002361646 10.1023115011805000  8.0818492009442018
 -0.0000000000001285  8.0818492009442835 12.1227738014164768
 -0.0000000000001434 10.1023115011803757 14.1432361016525459
  2.0204623002360420  8.0818492009442693 14.1432361016525459
  2.0204623002360957 10.1023115011804308 12.1227738014164093
  0.0000000000001177 12.1227738014167397 -0.0000000000002080
  0.0000000000001028 14.1432361016528283  2.0204623002358599
  2.0204623002362876 12.1227738014167254  2.0204623002358604
  2.0204623002363418 14.1432361016528834 -0.0000000000002772
  0.0000000000000487 12.1227738014166704  4.0409246004719979
  0.0000000000000338 14.1432361016527590  6.0613869007080652
  2.0204623002362192 12.1227738014166562  6.0613869007080652
  2.0204623002362729 14.1432361016528141  4.0409246004719286
 -0.0000000000000203 12.1227738014166011  8.0818492009442018
 -0.0000000000000352 14.1432361016526897 10.1023115011802709
  2.0204623002361495 12.1227738014165869 10.1023115011802727
  2.0204623002362037 14.1432361016527448  8.0818492009441325
 -0.0000000000000893 12.1227738014165318 12.1227738014164075
 -0.0000000000001042 14.1432361016526222 14.1432361016524766
  2.0204623002360806 12.1227738014165176 14.1432361016524766
  2.0204623002361348 14.1432361016526755 12.1227738014163400
  4.0409246004724100  0.0000000000000392 -0.0000000000000690
  4.0409246004723958  2.0204623002361282  2.0204623002359989
  6.0613869007085803  0.0000000000000242  2.0204623002359994
  6.0613869007086354  2.0204623002361819 -0.0000000000001382
  4.0409246004723407 -0.0000000000000301  4.0409246004721373
  4.0409246004723265  2.0204623002360584  6.0613869007082046
  6.0613869007085110 -0.0000000000000452  6.0613869007082046
  6.0613869007085661  2.0204623002361131  4.0409246004720671
  4.0409246004722723 -0.0000000000000995  8.0818492009443403
  4.0409246004722572  2.0204623002359892 10.1023115011804112
  6.0613869007084418 -0.0000000000001145 10.1023115011804112
  6.0613869007084977  2.0204623002360433  8.0818492009442711
  4.0409246004722030 -0.0000000000001688 12.1227738014165478
  4.0409246004721888  2.0204623002359203 14.1432361016526151
  6.0613869007083734 -0.0000000000001839 14.1432361016526151
  6.0613869007084284  2.0204623002359745 12.1227738014164768
  4.0409246004724491  4.0409246004722856 -0.0000000000001383
  4.0409246004724348  6.0613869007083743  2.0204623002359297
  6.0613869007086194  4.0409246004722714  2.0204623002359301
  6.0613869007086736  6.0613869007084284 -0.0000000000002075
  4.0409246004723798  4.0409246004722164  4.0409246004720680
  4.0409246004723656  6.0613869007083059  6.0613869007081354
  6.0613869007085501  4.0409246004722021  6.0613869007081354
  6.0613869007086052  6.0613869007083592  4.0409246004719979
  4.0409246004723114  4.0409246004721480  8.0818492009442711
  4.0409246004722963  6.0613869007082357 10.1023115011803419
  6.0613869007084809  4.0409246004721320 10.1023115011803419
  6.0613869007085368  6.0613869007082899  8.0818492009442018
  4.0409246004722421  4.0409246004720778 12.1227738014164768
  4.0409246004722279  6.0613869007081664 14.1432361016525459
  6.0613869007084125  4.0409246004720627 14.1432361016525459
  6.0613869007084675  6.0613869007082197 12.1227738014164075
  4.0409246004724881  8.0818492009445322 -0.0000000000002077
  4.0409246004724739 10.1023115011806208  2.0204623002358604
  6.0613869007086576  8.0818492009445144  2.0204623002358608
  6.0613869007087127 10.1023115011806759 -0.0000000000002769
  4.0409246004724189  8.0818492009444629  4.0409246004719979
  4.0409246004724046 10.1023115011805515  6.0613869007080661
  6.0613869007085892  8.0818492009444451  6.0613869007080652
  6.0613869007086443 10.1023115011806066  4.0409246004719286
  4.0409246004723505  8.0818492009443936  8.0818492009442018
  4.0409246004723354 10.1023115011804823 10.1023115011802727
  6.0613869007085199  8.0818492009443759 10.1023115011802709
  6.0613869007085759 10.1023115011805373  8.0818492009441325
  4.0409246004722812  8.0818492009443244 12.1227738014164075
  4.0409246004722670 10.1023115011804130 14.1432361016524766
  6.0613869007084515  8.0818492009443066 14.1432361016524766
  6.0613869007085066 10.1023115011804681 12.1227738014163382
  4.0409246004725272 12.1227738014167787 -0.0000000000002770
  4.0409246004725121 14.1432361016528674  2.0204623002357911
  6.0613869007086976 12.1227738014167628  2.0204623002357911
  6.0613869007087517 14.1432361016529224 -0.0000000000003462
  4.0409246004724588 12.1227738014167095  4.0409246004719286
  4.0409246004724437 14.1432361016527981  6.0613869007079968
  6.0613869007086292 12.1227738014166935  6.0613869007079959
  6.0613869007086825 14.1432361016528532  4.0409246004718593
  4.0409246004723904 12.1227738014166402  8.0818492009441325
  4.0409246004723745 14.1432361016527288 10.1023115011802034
  6.0613869007085599 12.1227738014166242 10.1023115011802016
  6.0613869007086150 14.1432361016527839  8.0818492009440632
  4.0409246004723212 12.1227738014165709 12.1227738014163382
  4.0409246004723061 14.1432361016526595 14.1432361016524073
  6.0613869007084915 12.1227738014165549 14.1432361016524073
  6.0613869007085457 14.1432361016527146 12.1227738014162689
  8.0818492009448182  0.0000000000000784 -0.0000000000001380
  8.0818492009448040  2.0204623002361672  2.0204623002359301
 10.1023115011809903  0.0000000000000634  2.0204623002359305
 10.1023115011810436  2.0204623002362214 -0.0000000000002072
  8.0818492009447489  0.0000000000000091  4.0409246004720671
  8.0818492009447329  2.0204623002360975  6.0613869007081354
 10.1023115011809193 -0.0000000000000060  6.0613869007081354
 10.1023115011809743  2.0204623002361521  4.0409246004719988
  8.0818492009446796 -0.0000000000000603  8.0818492009442728
  8.0818492009446654  2.0204623002360282 10.1023115011803419
 10.1023115011808517 -0.0000000000000753 10.1023115011803419
 10.1023115011809050  2.0204623002360824  8.0818492009442018
  8.0818492009446103 -0.0000000000001296 12.1227738014164785
  8.0818492009445961  2.0204623002359594 14.1432361016525476
 10.1023115011807825 -0.0000000000001447 14.1432361016525459
 10.1023115011808358  2.0204623002360136 12.1227738014164093
  8.0818492009448590  4.0409246004723247 -0.0000000000002073
  8.0818492009448430  6.0613869007084142  2.0204623002358608
 10.1023115011810312  4.0409246004723105  2.0204623002358613
 10.1023115011810827  6.0613869007084675 -0.0000000000002765
  8.0818492009447898  4.0409246004722563  4.0409246004719979
  8.0818492009447720  6.0613869007083450  6.0613869007080661
 10.1023115011809601  4.0409246004722412  6.0613869007080661
 10.1023115011810134  6.0613869007083983  4.0409246004719295
  8.0818492009447205  4.0409246004721870  8.0818492009442036
  8.0818492009447045  6.0613869007082748 10.1023115011802727
 10.1023115011808926  4.0409246004721711 10.1023115011802727
 10.1023115011809441  6.0613869007083290  8.0818492009441325
  8.0818492009446512  4.0409246004721169 12.1227738014164093
  8.0818492009446352  6.0613869007082055 14.1432361016524784
 10.1023115011808233  4.0409246004721027 14.1432361016524766
 10.1023115011808748  6.0613869007082597 12.1227738014163400
  8.0818492009448963  8.0818492009445695 -0.0000000000002767
  8.0818492009448821 10.1023115011806599  2.0204623002357915
 10.1023115011810685  8.0818492009445553  2.0204623002357915
 10.1023115011811218 10.1023115011807167 -0.0000000000003458
  8.0818492009448271  8.0818492009445002  4.0409246004719286
  8.0818492009448111 10.1023115011805906  6.0613869007079968
 10.1023115011809974  8.0818492009444860  6.0613869007079968
 10.1023115011810525 10.1023115011806475  4.0409246004718602
  8.0818492009447578  8.0818492009444309  8.0818492009441343
  8.0818492009447436 10.1023115011805231 10.1023115011802034
 10.1023115011809299  8.0818492009444167 10.1023115011802034
 10.1023115011809832 10.1023115011805782  8.0818492009440632
  8.0818492009446885  8.0818492009443634 12.1227738014163400
  8.0818492009446743 10.1023115011804538 14.1432361016524091
 10.1023115011808606  8.0818492009443474 14.1432361016524073
 10.1023115011809139 10.1023115011805089 12.1227738014162707
  8.0818492009449372 12.1227738014168178 -0.0000000000003460
  8.0818492009449212 14.1432361016529065  2.0204623002357223
 10.1023115011811093 12.1227738014168036  2.0204623002357223
 10.1023115011811608 14.1432361016529615 -0.0000000000004152
  8.0818492009448679 12.1227738014167485  4.0409246004718593
  8.0818492009448502 14.1432361016528372  6.0613869007079275
 10.1023115011810383 12.1227738014167343  6.0613869007079275
 10.1023115011810916 14.1432361016528922  4.0409246004717909
  8.0818492009447986 12.1227738014166810  8.0818492009440632
  8.0818492009447827 14.1432361016527697 10.1023115011801341
 10.1023115011809708 12.1227738014166651 10.1023115011801341
 10.1023115011810223 14.1432361016528230  8.0818492009439939
  8.0818492009447294 12.1227738014166118 12.1227738014162707
  8.0818492009447134 14.1432361016527004 14.1432361016523398
 10.1023115011809015 12.1227738014165958 14.1432361016523380
 10.1023115011809530 14.1432361016527537 12.1227738014162014
 12.1227738014172299  0.0000000000001177 -0.0000000000002070
 12.1227738014172157  2.0204623002362068  2.0204623002358613
 14.1432361016534003  0.0000000000001026  2.0204623002358617
 14.1432361016534536  2.0204623002362609 -0.0000000000002761
 12.1227738014171607  0.0000000000000483  4.0409246004719988
 12.1227738014171447  2.0204623002361370  6.0613869007080670
 14.1432361016533292  0.0000000000000332  6.0613869007080661
 14.1432361016533843  2.0204623002361917  4.0409246004719295
 12.1227738014170914 -0.0000000000000210  8.0818492009442018
 12.1227738014170772  2.0204623002360682 10.1023115011802727
 14.1432361016532617 -0.0000000000000361 10.1023115011802727
 14.1432361016533150  2.0204623002361224  8.0818492009441343
 12.1227738014170221 -0.0000000000000904 12.1227738014164093
 12.1227738014170079  2.0204623002359989 14.1432361016524784
 14.1432361016531924 -0.0000000000001054 14.1432361016524784
 14.1432361016532457  2.0204623002360531 12.1227738014163400
 12.1227738014172708  4.0409246004723638 -0.0000000000002763
 12.1227738014172548  6.0613869007084533  2.0204623002357920
 14.1432361016534411  4.0409246004723496  2.0204623002357920
 14.1432361016534927  6.0613869007085066 -0.0000000000003455
 12.1227738014172015  4.0409246004722954  4.0409246004719295
 12.1227738014171837  6.0613869007083840  6.0613869007079977
 14.1432361016533701  4.0409246004722803  6.0613869007079968
 14.1432361016534234  6.0613869007084373  4.0409246004718602
 12.1227738014171322  4.0409246004722261  8.0818492009441325
 12.1227738014171162  6.0613869007083139 10.1023115011802034
 14.1432361016533026  4.0409246004722101 10.1023115011802034
 14.1432361016533541  6.0613869007083681  8.0818492009440650
 12.1227738014170630  4.0409246004721560 12.1227738014163400
 12.1227738014170470  6.0613869007082446 14.1432361016524091
 14.1432361016532333  4.0409246004721417 14.1432361016524091
 14.1432361016532848  6.0613869007082988 12.1227738014162707
 12.1227738014173081  8.0818492009446103 -0.0000000000003457
 12.1227738014172939 10.1023115011807008  2.0204623002357227
 14.1432361016534784  8.0818492009445944  2.0204623002357223
 14.1432361016535317 10.1023115011807540 -0.0000000000004148
 12.1227738014172388  8.0818492009445411  4.0409246004718602
 12.1227738014172228 10.1023115011806315  6.0613869007079284
 14.1432361016534074  8.0818492009445251  6.0613869007079275
 14.1432361016534625 10.1023115011806848  4.0409246004717909
 12.1227738014171695  8.0818492009444718  8.0818492009440632
 12.1227738014171553 10.1023115011805622 10.1023115011801341
 14.1432361016533399  8.0818492009444558 10.1023115011801341
 14.1432361016533932 10.1023115011806155  8.0818492009439957
 12.1227738014171003  8.0818492009444025 12.1227738014162707
 12.1227738014170860 10.1023115011804929 14.1432361016523398
 14.1432361016532706  8.0818492009443865 14.1432361016523398
 14.1432361016533239 10.1023115011805462 12.1227738014162014
 12.1227738014173472 12.1227738014168569 -0.0000000000004150
 12.1227738014173312 14.1432361016529455  2.0204623002356530
 14.1432361016535193 12.1227738014168409  2.0204623002356530
 14.1432361016535708 14.1432361016530006 -0.0000000000004842
 12.1227738014172797 12.1227738014167876  4.0409246004717909
 12.1227738014172619 14.1432361016528763  6.0613869007078582
 14.1432361016534482 12.1227738014167716  6.0613869007078582
 14.1432361016535015 14.1432361016529313  4.0409246004717216
 12.1227738014172104 12.1227738014167183  8.0818492009439939
 12.1227738014171944 14.1432361016528070 10.1023115011800648
 14.1432361016533807 12.1227738014167024 10.1023115011800648
 14.1432361016534323 14.1432361016528620  8.0818492009439264
 12.1227738014171411 12.1227738014166491 12.1227738014161996
 12.1227738014171251 14.1432361016527377 14.1432361016522705
 14.1432361016533115 12.1227738014166331 14.1432361016522705
 14.1432361016533630 14.1432361016527928 12.1227738014161321
