Al 
 1.0000000000000000
    16.1636984018896399    0.0000000000001569   -0.0000000000002760
     0.0000000000001569   16.1636984018889862   -0.0000000000002774
    -0.0000000000002760   -0.0000000000002774   16.1636984018888228
 256
Direct
  0.0000000000000000  0.0000000000000000  0.0000000000000000
  0.0000000000000000  0.1250000000000000  0.1250000000000000
  0.1250000000000000  0.0000000000000000  0.1250000000000000
  0.1250000000000000  0.1250000000000000  0.0000000000000000
  0.0000000000000000  0.0000000000000000  0.2500000000000000
  0.0000000000000000  0.1250000000000000  0.3749999999999999
  0.1250000000000000  0.0000000000000000  0.3750000000000000
  0.1250000000000000  0.1250000000000000  0.2500000000000000
  0.0000000000000000  0.0000000000000000  0.4999999999999999
  0.0000000000000000  0.1250000000000000  0.6250000000000000
  0.1250000000000000  0.0000000000000000  0.6250000000000000
  0.1250000000000000  0.1250000000000000  0.4999999999999999
  0.0000000000000000  0.0000000000000000  0.7499999999999999
  0.0000000000000000  0.1250000000000000  0.8750000000000000
  0.1250000000000000  0.0000000000000000  0.8749999999999999
  0.1250000000000000  0.1250000000000000  0.7500000000000000
  0.0000000000000000  0.2500000000000000  0.0000000000000000
  0.0000000000000000  0.3750000000000000  0.1250000000000000
  0.1250000000000000  0.2500000000000001  0.1250000000000000
  0.1250000000000000  0.3750000000000000  0.0000000000000000
  0.0000000000000000  0.2500000000000000  0.2500000000000000
  0.0000000000000000  0.3750000000000000  0.3749999999999999
  0.1250000000000000  0.2500000000000001  0.3749999999999999
  0.1250000000000000  0.3750000000000000  0.2500000000000000
  0.0000000000000000  0.2500000000000001  0.4999999999999999
  0.0000000000000000  0.3750000000000000  0.6250000000000000
  0.1249999999999999  0.2500000000000000  0.6250000000000000
  0.1250000000000000  0.3750000000000000  0.4999999999999999
  0.0000000000000000  0.2500000000000000  0.7499999999999999
  0.0000000000000000  0.3750000000000000  0.8750000000000000
  0.1250000000000000  0.2500000000000000  0.8749999999999999
  0.1250000000000000  0.3749999999999999  0.7500000000000000
  0.0000000000000000  0.4999999999999999  0.0000000000000000
  0.0000000000000000  0.6250000000000001  0.1250000000000000
  0.1250000000000000  0.4999999999999999  0.1250000000000000
  0.1250000000000000  0.6250000000000001  0.0000000000000000
  0.0000000000000000  0.4999999999999999  0.2500000000000000
  0.0000000000000000  0.6250000000000001  0.3749999999999999
  0.1250000000000000  0.5000000000000000  0.3749999999999999
  0.1250000000000000  0.6250000000000002  0.2500000000000000
  0.0000000000000000  0.4999999999999999  0.4999999999999999
  0.0000000000000000  0.6250000000000001  0.6250000000000000
  0.1249999999999999  0.5000000000000000  0.6250000000000000
  0.1250000000000000  0.6250000000000002  0.4999999999999999
  0.0000000000000000  0.4999999999999999  0.7499999999999999
  0.0000000000000000  0.6250000000000002  0.8750000000000000
  0.1250000000000000  0.5000000000000000  0.8749999999999999
  0.1250000000000000  0.6250000000000002  0.7500000000000000
  0.0000000000000000  0.7500000000000000  0.0000000000000000
  0.0000000000000000  0.8750000000000001  0.1250000000000000
  0.1250000000000000  0.7500000000000001  0.1250000000000000
  0.1250000000000000  0.8750000000000001  0.0000000000000000
  0.0000000000000000  0.7500000000000000  0.2500000000000000
  0.0000000000000000  0.8750000000000001  0.3749999999999999
  0.1250000000000000  0.7500000000000001  0.3749999999999999
  0.1250000000000000  0.8750000000000001  0.2500000000000000
  0.0000000000000000  0.7500000000000000  0.4999999999999999
  0.0000000000000000  0.8750000000000001  0.6250000000000000
  0.1249999999999999  0.7500000000000001  0.6250000000000001
  0.1250000000000000  0.8750000000000001  0.4999999999999999
  0.0000000000000000  0.7500000000000000  0.7499999999999999
  0.0000000000000000  0.8750000000000002  0.8750000000000000
  0.1250000000000000  0.7500000000000001  0.8750000000000000
  0.1250000000000000  0.8750000000000001  0.7500000000000000
  0.2500000000000000  0.0000000000000000  0.0000000000000000
  0.2500000000000001  0.1250000000000000  0.1250000000000000
  0.3750000000000000  0.0000000000000000  0.1250000000000000
  0.3750000000000001  0.1250000000000000  0.0000000000000000
  0.2500000000000000  0.0000000000000000  0.2500000000000001
  0.2500000000000001  0.1250000000000000  0.3750000000000000
  0.3750000000000000  0.0000000000000000  0.3750000000000000
  0.3750000000000001  0.1250000000000000  0.2500000000000000
  0.2500000000000000  0.0000000000000000  0.4999999999999999
  0.2500000000000000  0.1250000000000000  0.6250000000000000
  0.3749999999999999  0.0000000000000000  0.6250000000000000
  0.3750000000000001  0.1250000000000000  0.4999999999999999
  0.2500000000000000  0.0000000000000000  0.7500000000000000
  0.2500000000000001  0.1250000000000001  0.8749999999999999
  0.3750000000000000  0.0000000000000000  0.8749999999999999
  0.3750000000000001  0.1250000000000000  0.7499999999999999
  0.2500000000000000  0.2500000000000000  0.0000000000000000
  0.2500000000000001  0.3750000000000000  0.1250000000000000
  0.3750000000000000  0.2500000000000001  0.1250000000000000
  0.3750000000000000  0.3750000000000000  0.0000000000000000
  0.2500000000000000  0.2500000000000000  0.2500000000000001
  0.2500000000000001  0.3750000000000001  0.3750000000000000
  0.3750000000000000  0.2500000000000001  0.3750000000000000
  0.3750000000000001  0.3750000000000000  0.2500000000000000
  0.2500000000000000  0.2500000000000001  0.4999999999999999
  0.2500000000000000  0.3750000000000000  0.6250000000000000
  0.3749999999999999  0.2500000000000000  0.6250000000000000
  0.3750000000000001  0.3750000000000000  0.4999999999999999
  0.2500000000000000  0.2500000000000000  0.7499999999999999
  0.2500000000000001  0.3750000000000000  0.8749999999999999
  0.3750000000000000  0.2500000000000000  0.8749999999999999
  0.3750000000000001  0.3749999999999999  0.7499999999999999
  0.2500000000000000  0.5000000000000000  0.0000000000000000
  0.2500000000000001  0.6250000000000001  0.1250000000000000
  0.3749999999999999  0.4999999999999999  0.1250000000000000
  0.3750000000000000  0.6250000000000001  0.0000000000000000
  0.2500000000000000  0.5000000000000000  0.2500000000000000
  0.2500000000000001  0.6250000000000001  0.3750000000000000
  0.3750000000000000  0.4999999999999999  0.3749999999999999
  0.3750000000000001  0.6250000000000001  0.2500000000000000
  0.2500000000000000  0.5000000000000000  0.4999999999999999
  0.2500000000000000  0.6250000000000001  0.6250000000000000
  0.3749999999999999  0.4999999999999999  0.6249999999999999
  0.3750000000000001  0.6250000000000001  0.4999999999999999
  0.2500000000000000  0.5000000000000000  0.7499999999999999
  0.2500000000000001  0.6250000000000001  0.8749999999999999
  0.3750000000000000  0.4999999999999999  0.8749999999999999
  0.3750000000000001  0.6250000000000001  0.7499999999999999
  0.2500000000000000  0.7500000000000000  0.0000000000000000
  0.2499999999999999  0.8750000000000001  0.1250000000000000
  0.3750000000000000  0.7500000000000000  0.1250000000000000
  0.3749999999999999  0.8750000000000001  0.0000000000000000
  0.2500000000000001  0.7500000000000000  0.2500000000000000
  0.2500000000000000  0.8750000000000001  0.3750000000000000
  0.3750000000000001  0.7500000000000000  0.3749999999999999
  0.3749999999999999  0.8750000000000001  0.2500000000000000
  0.2500000000000001  0.7500000000000000  0.4999999999999999
  0.2499999999999999  0.8750000000000001  0.6250000000000000
  0.3750000000000000  0.7500000000000000  0.6249999999999999
  0.3750000000000000  0.8750000000000001  0.4999999999999999
  0.2500000000000001  0.7500000000000000  0.7499999999999999
  0.2500000000000000  0.8750000000000001  0.8749999999999999
  0.3750000000000001  0.7500000000000000  0.8749999999999999
  0.3750000000000000  0.8750000000000001  0.7499999999999999
  0.4999999999999999  0.0000000000000000  0.0000000000000000
  0.4999999999999999  0.1250000000000000  0.1250000000000000
  0.6249999999999999  0.0000000000000000  0.1250000000000000
  0.6249999999999999  0.1250000000000000  0.0000000000000000
  0.4999999999999999  0.0000000000000000  0.2499999999999999
  0.4999999999999998  0.1250000000000000  0.3749999999999999
  0.6249999999999998  0.0000000000000000  0.3749999999999999
  0.6249999999999999  0.1250000000000000  0.2500000000000000
  0.4999999999999999  0.0000000000000000  0.5000000000000000
  0.4999999999999999  0.1250000000000000  0.6250000000000000
  0.6249999999999999  0.0000000000000000  0.6250000000000000
  0.6249999999999999  0.1250000000000000  0.4999999999999999
  0.4999999999999999  0.0000000000000000  0.7500000000000000
  0.4999999999999999  0.1250000000000000  0.8750000000000000
  0.6249999999999999  0.0000000000000000  0.8749999999999999
  0.6249999999999999  0.1250000000000000  0.7500000000000000
  0.5000000000000000  0.2500000000000000  0.0000000000000000
  0.4999999999999999  0.3750000000000001  0.1250000000000000
  0.6250000000000000  0.2500000000000001  0.1250000000000000
  0.6249999999999999  0.3750000000000000  0.0000000000000000
  0.5000000000000000  0.2500000000000001  0.2499999999999999
  0.4999999999999998  0.3750000000000001  0.3749999999999999
  0.6249999999999999  0.2500000000000001  0.3749999999999999
  0.6249999999999999  0.3750000000000000  0.2500000000000000
  0.5000000000000000  0.2500000000000001  0.5000000000000000
  0.4999999999999999  0.3750000000000000  0.6250000000000000
  0.6250000000000000  0.2500000000000000  0.6250000000000000
  0.6249999999999999  0.3750000000000000  0.4999999999999999
  0.5000000000000000  0.2500000000000000  0.7500000000000000
  0.4999999999999999  0.3750000000000000  0.8750000000000000
  0.6250000000000000  0.2500000000000001  0.8749999999999999
  0.6249999999999999  0.3750000000000000  0.7500000000000000
  0.4999999999999999  0.4999999999999999  0.0000000000000000
  0.4999999999999999  0.6250000000000001  0.1250000000000000
  0.6249999999999999  0.5000000000000000  0.1250000000000000
  0.6249999999999999  0.6250000000000002  0.0000000000000000
  0.4999999999999999  0.4999999999999999  0.2500000000000000
  0.4999999999999998  0.6250000000000001  0.3750000000000000
  0.6249999999999998  0.5000000000000000  0.3749999999999999
  0.6249999999999999  0.6250000000000002  0.2500000000000000
  0.4999999999999999  0.4999999999999999  0.5000000000000000
  0.4999999999999999  0.6250000000000002  0.6250000000000000
  0.6249999999999999  0.5000000000000000  0.6250000000000000
  0.6249999999999999  0.6250000000000002  0.4999999999999999
  0.4999999999999999  0.5000000000000000  0.7500000000000000
  0.4999999999999999  0.6250000000000002  0.8750000000000000
  0.6249999999999999  0.5000000000000000  0.8749999999999999
  0.6249999999999999  0.6250000000000002  0.7500000000000000
  0.5000000000000000  0.7500000000000000  0.0000000000000000
  0.4999999999999999  0.8750000000000001  0.1250000000000000
  0.6250000000000000  0.7500000000000001  0.1250000000000000
  0.6249999999999999  0.8750000000000001  0.0000000000000000
  0.5000000000000000  0.7500000000000000  0.2500000000000000
  0.4999999999999998  0.8750000000000001  0.3750000000000000
  0.6249999999999999  0.7500000000000001  0.3749999999999999
  0.6249999999999999  0.8750000000000001  0.2500000000000000
  0.5000000000000000  0.7500000000000001  0.4999999999999999
  0.4999999999999999  0.8750000000000002  0.6250000000000000
  0.6250000000000000  0.7500000000000001  0.6250000000000000
  0.6249999999999999  0.8750000000000001  0.4999999999999999
  0.5000000000000000  0.7500000000000001  0.7500000000000000
  0.4999999999999999  0.8750000000000002  0.8750000000000000
  0.6250000000000000  0.7500000000000001  0.8749999999999999
  0.6249999999999999  0.8750000000000001  0.7500000000000000
  0.7500000000000000  0.0000000000000000  0.0000000000000000
  0.7500000000000000  0.1250000000000000  0.1250000000000000
  0.8749999999999999  0.0000000000000000  0.1250000000000000
  0.8749999999999999  0.1250000000000000  0.0000000000000000
  0.7500000000000000  0.0000000000000000  0.2500000000000000
  0.7499999999999999  0.1250000000000000  0.3750000000000000
  0.8749999999999998  0.0000000000000000  0.3749999999999999
  0.8749999999999999  0.1250000000000000  0.2500000000000000
  0.7500000000000000  0.0000000000000000  0.4999999999999999
  0.7500000000000000  0.1250000000000000  0.6250000000000000
  0.8749999999999999  0.0000000000000000  0.6250000000000000
  0.8749999999999999  0.1250000000000000  0.4999999999999999
  0.7500000000000000  0.0000000000000000  0.7500000000000000
  0.7500000000000000  0.1250000000000001  0.8750000000000000
  0.8749999999999999  0.0000000000000000  0.8750000000000000
  0.8749999999999999  0.1250000000000000  0.7499999999999999
  0.7500000000000001  0.2500000000000000  0.0000000000000000
  0.7500000000000000  0.3750000000000001  0.1250000000000000
  0.8750000000000000  0.2500000000000000  0.1250000000000000
  0.8749999999999999  0.3749999999999999  0.0000000000000000
  0.7500000000000001  0.2500000000000001  0.2500000000000000
  0.7499999999999999  0.3750000000000001  0.3750000000000000
  0.8749999999999999  0.2500000000000000  0.3749999999999999
  0.8749999999999999  0.3749999999999999  0.2500000000000000
  0.7500000000000001  0.2500000000000001  0.4999999999999999
  0.7500000000000000  0.3750000000000000  0.6250000000000000
  0.8750000000000000  0.2499999999999999  0.6250000000000000
  0.8749999999999999  0.3749999999999999  0.4999999999999999
  0.7500000000000001  0.2500000000000000  0.7500000000000000
  0.7500000000000000  0.3750000000000000  0.8750000000000000
  0.8750000000000000  0.2500000000000000  0.8750000000000000
  0.8749999999999999  0.3749999999999999  0.7499999999999999
  0.7500000000000000  0.5000000000000000  0.0000000000000000
  0.7500000000000000  0.6250000000000002  0.1250000000000000
  0.8749999999999999  0.5000000000000000  0.1250000000000000
  0.8749999999999999  0.6250000000000001  0.0000000000000000
  0.7500000000000000  0.5000000000000000  0.2500000000000000
  0.7499999999999999  0.6250000000000002  0.3750000000000000
  0.8749999999999998  0.5000000000000000  0.3749999999999999
  0.8749999999999999  0.6250000000000001  0.2500000000000000
  0.7500000000000000  0.5000000000000000  0.4999999999999999
  0.7500000000000000  0.6250000000000002  0.6250000000000000
  0.8749999999999999  0.5000000000000000  0.6250000000000000
  0.8749999999999999  0.6250000000000001  0.5000000000000000
  0.7500000000000000  0.5000000000000000  0.7500000000000000
  0.7500000000000000  0.6250000000000002  0.8750000000000000
  0.8749999999999999  0.5000000000000000  0.8750000000000000
  0.8749999999999999  0.6250000000000001  0.7500000000000000
  0.7500000000000000  0.7500000000000000  0.0000000000000000
  0.7499999999999999  0.8750000000000001  0.1250000000000000
  0.8750000000000000  0.7500000000000000  0.1250000000000000
  0.8749999999999999  0.8750000000000001  0.0000000000000000
  0.7500000000000001  0.7500000000000000  0.2500000000000000
  0.7499999999999999  0.8750000000000001  0.3749999999999999
  0.8749999999999999  0.7500000000000000  0.3749999999999999
  0.8749999999999999  0.8750000000000001  0.2500000000000000
  0.7500000000000001  0.7500000000000000  0.4999999999999999
  0.7500000000000000  0.8750000000000001  0.6250000000000000
  0.8750000000000000  0.7500000000000000  0.6250000000000000
  0.8749999999999999  0.8750000000000001  0.5000000000000000
  0.7500000000000001  0.7500000000000000  0.7499999999999999
  0.7500000000000000  0.8750000000000001  0.8750000000000000
  0.8750000000000000  0.7500000000000000  0.8750000000000000
  0.8749999999999999  0.8750000000000001  0.7500000000000000
