Al 
 1.0000000000000000
     4.0428461813853964    0.0000000000000000    0.0000000000000000
     0.0000000000000000    4.0428461813853964    0.0000000000000000
     0.0000000000000000    0.0000000000000000    4.0428461813853964
   4
Cartesian
  0.0000000000000000  0.0000000000000000  0.0000000000000000
  0.0000000000000000  2.0214230906926978  2.0214230906926978
  2.0214230906926978  0.0000000000000000  2.0214230906926978
  2.0214230906926978  2.0214230906926978  0.0000000000000000
