Al 
 1.0000000000000000
     4.0428461813853964    0.0000000000000000    0.0000000000000000
     0.0000000000000000    4.0428461813853964    0.0000000000000000
     0.0000000000000000    0.0000000000000000    4.0428461813853964
   4
Direct
  0.0000000000000000  0.0000000000000000  0.0000000000000000
  0.0000000000000000  0.4999999999999999  0.4999999999999999
  0.4999999999999999  0.0000000000000000  0.4999999999999999
  0.4999999999999999  0.4999999999999999  0.0000000000000000
