&CONTROL
/
&SYSTEM
   ntyp             = 1
   nat              = 4
   ibrav            = 0
/
&ELECTRONS
/
&IONS
/
&CELL
/

ATOMIC_SPECIES
Al 26.9815385 Al_dummy.UPF

K_POINTS gamma

CELL_PARAMETERS angstrom
4.31275510698172 0.00000000000000 0.00000000000000
0.00000000000000 4.28419382539596 0.00000000000000
0.00000000000000 0.00000000000000 4.28419382539596

ATOMIC_POSITIONS angstrom
Al 0.0000000000 0.0000000000 0.0000000000 
Al 2.1563775535 2.1420966481 0.0000000000 
Al 2.1563775535 0.0000000000 2.1420966481 
Al 0.0000000000 2.1420966481 2.1420966481 

