&CONTROL
  calculation = 'scf'
  outdir = './out/'
  prefix = 'aiida'
  pseudo_dir = '/users/aglensk/Dropbox/Albert/scripts/dotfiles/scripts/potentials/quantum_espresso/pseudo_SSSPefV1.1_alalloy'
  tprnfor = .true.             	! calculate the pressure of the cell
  tstress = .true.
  verbosity = 'high'
  wf_collect = .true.
  etot_conv_thr = 2.5d-4    ! EDIFFG positive atomic units
  forc_conv_thr = 2.0d-5
/
&SYSTEM
  degauss =   4.4100000000d-02  ! SIGMA in Rydberg  so, 0.60001101eV
  ecutrho = 400                 ! AUGMENTATION charges
  ecutwfc =  40                 ! ENCUT in Rydberg, so 544eV
  ibrav = 0                     ! no symmetry
   nat              = 22
   ntyp             = 3
  occupations = 'smearing'      ! using smearing 
  smearing = 'mp'               ! methfessel paxton
  nosym= .true. 		! no symmetry
/
&ELECTRONS
  conv_thr =   1.0000000000d-12   	! EDIFF
  mixing_beta =   4.0000000000d-01      ! MIXING
  mixing_mode = 'local-TF'                 ! MIXING
/
&IONS
  !press_conv_thr = 0.05                 ! just for volume relaxations
/
ATOMIC_SPECIES
Mg 24.305 Mg.pbe-n-kjpaw_psl.0.3.0.UPF
Si 28.085 Si.pbe-n-rrkjus_psl.1.0.0.UPF
Al 26.9815385 Al.pbe-n-kjpaw_psl.1.0.0.UPF

K_POINTS automatic
6 20 13 0 0 0
CELL_PARAMETERS angstrom
14.74014494437047 0.00000000000000 -4.22319927257474
0.00000000000000 4.05834945876268 0.00000000000000
0.00000000000000 0.00000000000000 6.83716800193879

ATOMIC_POSITIONS angstrom
Mg 0.0208046020 4.0577684222 6.7529944289 
Mg 1.1171438925 2.0280769513 2.0576743618 
Mg 2.3023272741 2.0280160959 5.5073493760 
Mg 5.1094446269 4.0574826665 -0.9502948472 
Mg 6.2944607885 4.0574212819 2.4996055965 
Si 0.8726068701 4.0573535473 4.1719733311 
Si 2.7575255106 4.0572413617 0.6533327677 
Al 3.2166640006 4.0572328948 3.2203338446 
Al 4.1949369761 2.0282663967 1.3367249177 
Si 4.6541410841 2.0282531673 3.9037222903 
Si 6.5390031026 2.0281399233 0.3852309549 
Mg 7.3908768096 2.0277313985 4.6413947927 
Mg 8.4872161001 4.0574212819 -0.0539247453 
Mg 9.6723994816 4.0574826665 3.3957497397 
Mg 12.4795168345 2.0280160959 -3.0618950127 
Mg 13.6645335252 2.0280764221 0.3880054310 
Si 8.2426796069 2.0281393942 2.0603742240 
Si 10.1275982474 2.0282531673 -1.4582668686 
Al 10.5867367374 2.0282658675 1.1087342083 
Al 11.5650091837 4.0572328948 -0.7748752478 
Si 12.0242132917 4.0572413617 1.7921226540 
Si 13.9090758394 4.0573535473 -1.7263692105 

