&CONTROL
/
&SYSTEM
   ntyp             = 2
   nat              = 255
   ibrav            = 0
/
&ELECTRONS
/
&IONS
/
&CELL
/

ATOMIC_SPECIES
Al 26.9815385 Al_dummy.UPF
Si 28.085 Si_dummy.UPF

K_POINTS gamma

CELL_PARAMETERS angstrom
16.22799863997135 0.00000000000000 0.00000000000000
0.00000000000000 16.22799863997135 0.00000000000000
0.00000000000000 0.00000000000000 16.22799863997135

ATOMIC_POSITIONS angstrom
Al 1.9924919006 0.0066279446 1.9924919006 
Al 1.9946318932 2.0047672243 0.0098495754 
Al 0.0098495754 2.0047672243 1.9946318932 
Al 0.0011229140 0.0034407102 4.0522369328 
Al 2.0268561394 2.0390452073 4.0420296336 
Al 2.0281039393 0.0047107355 6.0815309916 
Al 0.0011678941 2.0289696732 6.0824237136 
Al 0.0004635592 0.0004804929 8.1133825639 
Al 2.0290696877 2.0297676724 8.1122167866 
Al 2.0279504779 0.0006683508 10.1418712151 
Al 0.0001058354 2.0280557842 10.1418357602 
Al 0.0002286046 0.0003889452 12.1750187424 
Al 2.0269609165 2.0277324569 12.1750346177 
Al 1.9933761557 0.0048631386 14.2393051734 
Al 0.0012959550 1.9945620418 14.2382727487 
Al 0.0136411301 4.0526433409 0.0136411301 
Al 2.0277493906 6.0742521591 0.0116741784 
Si 2.0298179443 4.0633978094 2.0298179443 
Al 0.0116741784 6.0742521591 2.0277493906 
Al 0.0127648127 4.0425455814 4.0301226172 
Al 2.0269603873 6.0718512821 4.0451131492 
Al 2.0272212717 4.0571487557 6.0781934710 
Al 0.0012139325 6.0825687082 6.0798693752 
Al 0.0006948097 4.0574440366 8.1121268264 
Al 2.0286934427 6.0851235757 8.1120151700 
Al 2.0271884627 4.0571418764 10.1437540276 
Al 0.0001148315 6.0836979723 10.1441218058 
Al 0.0006201957 4.0434843417 12.1863547766 
Al 2.0271540662 6.0835445109 12.1727755602 
Al 2.0269360452 4.0546859649 14.2072830729 
Al 0.0010054367 6.0848727457 14.2036682634 
Al 0.0010588836 8.1104027671 0.0010588836 
Al 2.0279642365 10.1399942235 0.0006858137 
Al 2.0291469476 8.1073806360 2.0291469476 
Al 0.0006858137 10.1399942235 2.0279642365 
Al 0.0011065095 8.1101889795 4.0563761569 
Al 2.0272159799 10.1416706569 4.0564587086 
Al 2.0286881509 8.1093179538 6.0811610968 
Al 0.0004566799 10.1436561298 6.0833063812 
Al 0.0003963537 8.1135857680 8.1135069206 
Al 2.0287463604 10.1417283372 8.1135751845 
Al 2.0287209599 8.1133979101 10.1421866047 
Al 16.2279700644 10.1442488083 10.1441583190 
Al 0.0004439797 8.1135058622 12.1711843243 
Al 2.0271699415 10.1432862349 12.1712912181 
Al 2.0290913840 8.1093856885 14.2035275022 
Al 0.0004191084 10.1414251187 14.2005027253 
Al 0.0000904893 12.1751028815 0.0000904893 
Al 1.9934290734 14.2369291678 0.0008218122 
Al 2.0270566976 12.1732258900 2.0270566976 
Al 0.0008218122 14.2369291678 1.9934290734 
Al 0.0001079522 12.1845090065 4.0434557662 
Al 2.0272159799 14.2028046462 4.0541964760 
Al 2.0271937545 12.1708848100 6.0835646197 
Al 0.0005191228 14.2007202171 6.0855829015 
Al 16.2279944066 12.1704831645 8.1140339811 
Al 2.0290612209 14.1993369479 8.1135487256 
Al 2.0272218009 12.1707884997 10.1436518964 
Al 0.0000492135 14.1999947152 10.1419267787 
Al 0.0000206379 12.1845333486 12.1844761975 
Al 2.0269381619 14.2014314313 12.1737249041 
Al 2.0270254761 12.1733274920 14.2016351645 
Al 0.0006000870 14.2353654491 14.2349436949 
Al 4.0522369328 0.0034407102 0.0011229140 
Al 6.0824237136 2.0289696732 0.0011678941 
Al 6.0815309916 0.0047107355 2.0281039393 
Al 4.0420296336 2.0390452073 2.0268561394 
Al 4.0419894161 0.0039677707 4.0419894161 
Al 6.0809367256 2.0282320002 4.0561205644 
Al 6.0846785377 16.2270313040 6.0846785377 
Al 4.0561205644 2.0282320002 6.0809367256 
Al 4.0570042903 0.0004736136 8.1135005705 
Al 6.0853939853 2.0291532977 8.1133989684 
Al 6.0837180811 0.0000904893 10.1441572606 
Al 4.0570545621 2.0272853022 10.1437487358 
Al 4.0430885172 0.0007122725 12.1850858096 
Al 6.0838048661 2.0276668389 12.1714467962 
Al 6.0868137677 16.2273287016 14.1992316416 
Al 4.0532280817 2.0280864764 14.2049684518 
Al 4.0301226172 4.0425455814 0.0127648127 
Al 6.0798693752 6.0825687082 0.0012139325 
Al 6.0781934710 4.0571487557 2.0272212717 
Al 4.0451131492 6.0718512821 2.0269603873 
Al 4.0470478211 4.0583277625 4.0470478211 
Al 6.0817140870 6.0844478164 4.0555241816 
Al 6.0810716658 4.0567656314 6.0810716658 
Al 4.0555241816 6.0844478164 6.0817140870 
Al 4.0561004556 4.0567899735 8.1122162574 
Al 6.0847198135 6.0848108320 8.1134709365 
Al 6.0851701433 4.0566931341 10.1421680835 
Al 4.0565608398 6.0857220752 10.1421675543 
Al 4.0588204265 4.0593776501 12.1704492972 
Al 6.0852447573 6.0852638077 12.1720156617 
Al 6.0795264684 4.0569011007 14.2055209128 
Al 4.0559835075 6.0832053083 14.2044064656 
Al 4.0563761569 8.1101889795 0.0011065095 
Al 6.0833063812 10.1436561298 0.0004566799 
Al 6.0811610968 8.1093179538 2.0286881509 
Al 4.0564587086 10.1416706569 2.0272159799 
Al 4.0556210211 8.1100942568 4.0556210211 
Al 6.0853315424 10.1416267352 4.0561920033 
Al 6.0860046558 8.1148182217 6.0860046558 
Al 4.0561920033 10.1416267352 6.0853315424 
Al 4.0575318800 8.1134465944 8.1134016143 
Al 6.0850203862 10.1429951875 8.1141101826 
Al 6.0849717019 8.1137762718 10.1428877645 
Al 4.0567169471 10.1422368765 10.1421781379 
Al 4.0562623838 8.1135381420 12.1718547918 
Al 6.0857453590 10.1423390077 12.1711425193 
Al 6.0866491936 8.1147557788 14.1985654075 
Al 4.0567412892 10.1431523531 14.2012472776 
Al 4.0434557662 12.1845090065 0.0001079522 
Al 6.0855829015 14.2007202171 0.0005191228 
Al 6.0835646197 12.1708848100 2.0271937545 
Al 4.0541964760 14.2028046462 2.0272159799 
Al 4.0595162945 12.1683696307 4.0595162945 
Al 6.0839255185 14.2013287709 4.0569058633 
Al 6.0857289545 12.1712298335 6.0857289545 
Al 4.0569058633 14.2013287709 6.0839255185 
Al 4.0567238264 12.1712806345 8.1140408604 
Al 6.0857575300 14.1991109892 8.1142149597 
Al 6.0858945869 12.1713790615 10.1422215304 
Al 4.0570635581 14.2007757807 10.1438185872 
Al 4.0594236885 12.1685051001 12.1684320736 
Al 6.0840900926 14.2007493219 12.1707736828 
Al 6.0841154931 12.1708244838 14.2010154980 
Al 4.0544578896 14.2014219061 14.2014811740 
Al 8.1133825639 0.0004804929 0.0004635592 
Al 10.1418357602 2.0280557842 0.0001058354 
Al 10.1418712151 0.0006683508 2.0279504779 
Al 8.1122167866 2.0297676724 2.0290696877 
Al 8.1135005705 0.0004736136 4.0570042903 
Al 10.1437487358 2.0272853022 4.0570545621 
Al 10.1441572606 0.0000904893 6.0837180811 
Al 8.1133989684 2.0291532977 6.0853939853 
Al 8.1141175911 0.0001397028 8.1141175911 
Al 10.1422167678 2.0287119639 8.1140292185 
Al 10.1442757963 16.2279531307 10.1442757963 
Al 8.1140292185 2.0287119639 10.1422167678 
Al 8.1141371706 0.0000862559 12.1704016712 
Al 10.1437032266 2.0272165091 12.1707440489 
Al 10.1417918385 0.0001222399 14.2001571726 
Al 8.1134010851 2.0295438305 14.1994242621 
Al 8.1121268264 4.0574440366 0.0006948097 
Al 10.1441218058 6.0836979723 0.0001148315 
Al 10.1437540276 4.0571418764 2.0271884627 
Al 8.1120151700 6.0851235757 2.0286934427 
Al 8.1122162574 4.0567899735 4.0561004556 
Al 10.1421675543 6.0857220752 4.0565608398 
Al 10.1421680835 4.0566931341 6.0851701433 
Al 8.1134709365 6.0848108320 6.0847198135 
Al 8.1135079789 4.0579255878 8.1135079789 
Al 10.1427882792 6.0851071712 8.1140593816 
Al 10.1422072426 4.0566444498 10.1422072426 
Al 8.1140593816 6.0851071712 10.1427882792 
Al 8.1136000558 4.0568196074 12.1716452376 
Al 10.1421474456 6.0858363774 12.1712811637 
Al 10.1436794136 4.0571244135 14.2014795864 
Al 8.1132957789 6.0853913394 14.1998216742 
Al 8.1135069206 8.1135857680 0.0003963537 
Al 10.1441583190 10.1442488083 16.2279700644 
Al 10.1421866047 8.1133979101 2.0287209599 
Al 8.1135751845 10.1417283372 2.0287463604 
Al 8.1134016143 8.1134465944 4.0575318800 
Al 10.1421781379 10.1422368765 4.0567169471 
Al 10.1428877645 8.1137762718 6.0849717019 
Al 8.1141101826 10.1429951875 6.0850203862 
Al 8.1141937926 8.1140064639 8.1141937926 
Al 10.1428470179 10.1426200008 8.1137455795 
Al 10.1428433136 8.1141477542 10.1428433136 
Al 8.1137455795 10.1426200008 10.1428470179 
Al 8.1141054200 8.1138588234 12.1698587354 
Al 10.1422114760 10.1419574710 12.1716288332 
Al 10.1421892506 8.1138053765 14.1994464876 
Al 8.1141313497 10.1423210157 14.1992893219 
Al 8.1140339811 12.1704831645 16.2279944066 
Al 10.1419267787 14.1999947152 0.0000492135 
Al 10.1436518964 12.1707884997 2.0272218009 
Al 8.1135487256 14.1993369479 2.0290612209 
Al 8.1140408604 12.1712806345 4.0567238264 
Al 10.1438185872 14.2007757807 4.0570635581 
Al 10.1422215304 12.1713790615 6.0858945869 
Al 8.1142149597 14.1991109892 6.0857575300 
Al 8.1137508713 12.1700010841 8.1137508713 
Al 10.1421622625 14.1995681983 8.1138207227 
Al 10.1421548541 12.1712716385 10.1421548541 
Al 8.1138207227 14.1995681983 10.1421622625 
Al 8.1137228249 12.1713092101 12.1715526316 
Al 10.1436069163 14.2009546426 12.1710525592 
Al 10.1437757239 12.1709419611 14.2007577887 
Al 8.1141212953 14.1987664949 14.1990533089 
Al 12.1750187424 0.0003889452 0.0002286046 
Al 14.2382727487 1.9945620418 0.0012959550 
Al 14.2393051734 0.0048631386 1.9933761557 
Al 12.1750346177 2.0277324569 2.0269609165 
Al 12.1850858096 0.0007122725 4.0430885172 
Al 14.2049684518 2.0280864764 4.0532280817 
Al 14.1992316416 16.2273287016 6.0868137677 
Al 12.1714467962 2.0276668389 6.0838048661 
Al 12.1704016712 0.0000862559 8.1141371706 
Al 14.1994242621 2.0295438305 8.1134010851 
Al 14.2001571726 0.0001222399 10.1417918385 
Al 12.1707440489 2.0272165091 10.1437032266 
Al 12.1844037002 16.2278954504 12.1844037002 
Al 14.2013345919 2.0273525077 12.1736206562 
Al 14.2351347278 0.0001598115 14.2351347278 
Al 12.1736206562 2.0273525077 14.2013345919 
Al 12.1863547766 4.0434843417 0.0006201957 
Al 14.2036682634 6.0848727457 0.0010054367 
Al 14.2072830729 4.0546859649 2.0269360452 
Al 12.1727755602 6.0835445109 2.0271540662 
Al 12.1704492972 4.0593776501 4.0588204265 
Al 14.2044064656 6.0832053083 4.0559835075 
Al 14.2055209128 4.0569011007 6.0795264684 
Al 12.1720156617 6.0852638077 6.0852447573 
Al 12.1716452376 4.0568196074 8.1136000558 
Al 14.1998216742 6.0853913394 8.1132957789 
Al 14.2014795864 4.0571244135 10.1436794136 
Al 12.1712811637 6.0858363774 10.1421474456 
Al 12.1688681156 4.0596427679 12.1688681156 
Al 14.2011731928 6.0838233873 12.1713880575 
Al 14.2060172810 4.0544981070 14.2060172810 
Al 12.1713880575 6.0838233873 14.2011731928 
Al 12.1711843243 8.1135058622 0.0004439797 
Al 14.2005027253 10.1414251187 0.0004191084 
Al 14.2035275022 8.1093856885 2.0290913840 
Al 12.1712912181 10.1432862349 2.0271699415 
Al 12.1718547918 8.1135381420 4.0562623838 
Al 14.2012472776 10.1431523531 4.0567412892 
Al 14.1985654075 8.1147557788 6.0866491936 
Al 12.1711425193 10.1423390077 6.0857453590 
Al 12.1698587354 8.1138588234 8.1141054200 
Al 14.1992893219 10.1423210157 8.1141313497 
Al 14.1994464876 8.1138053765 10.1421892506 
Al 12.1716288332 10.1419574710 10.1422114760 
Al 12.1710832514 8.1139636005 12.1710832514 
Al 14.2009244795 10.1438857927 12.1706736683 
Al 14.1980563390 8.1148102841 14.1980563390 
Al 12.1706736683 10.1438857927 14.2009244795 
Al 12.1844761975 12.1845333486 0.0000206379 
Al 14.2349436949 14.2353654491 0.0006000870 
Al 14.2016351645 12.1733274920 2.0270254761 
Al 12.1737249041 14.2014314313 2.0269381619 
Al 12.1684320736 12.1685051001 4.0594236885 
Al 14.2014811740 14.2014219061 4.0544578896 
Al 14.2010154980 12.1708244838 6.0841154931 
Al 12.1707736828 14.2007493219 6.0840900926 
Al 12.1715526316 12.1713092101 8.1137228249 
Al 14.1990533089 14.1987664949 8.1141212953 
Al 14.2007577887 12.1709419611 10.1437757239 
Al 12.1710525592 14.2009546426 10.1436069163 
Al 12.1686072313 12.1683923853 12.1686072313 
Al 14.2009160127 14.2010091479 12.1733401923 
Al 14.2010535988 12.1731634471 14.2010535988 
Al 12.1733401923 14.2010091479 14.2009160127 

