&CONTROL
/
&SYSTEM
   ntyp             = 3
   nat              = 22
   ibrav            = 0
/
&ELECTRONS
/
&IONS
/
&CELL
/

ATOMIC_SPECIES
Mg 24.305 Mg_dummy.UPF
Si 28.085 Si_dummy.UPF
Al 26.9815385 Al_dummy.UPF

K_POINTS gamma

CELL_PARAMETERS angstrom
14.11229523441606 0.00000000000000 -3.84880798363246
0.00000000000000 4.05703339504001 0.00000000000000
0.00000000000000 0.00000000000000 6.95992758959981

ATOMIC_POSITIONS angstrom
Mg 0.0198504955 0.0000000000 4.7153806460 
Mg 1.0503135734 2.0285166975 -0.0485408963 
Mg 2.1925933834 2.0285166975 3.5242032742 
Mg 4.9034094800 0.0000000000 3.9816954939 
Mg 6.0456363723 0.0000000000 0.5945480589 
Si 0.8354554548 0.0000000000 2.1065010139 
Si 2.6250004867 0.0000000000 5.5410352097 
Al 3.1149720161 0.0000000000 1.1795158936 
Al 3.9809726379 2.0285166975 -0.6335177271 
Si 4.4709753887 2.0285166975 1.9648635584 
Si 6.2604532150 2.0285166975 -1.5605398897 
Mg 7.0761449594 2.0285166975 2.7905329391 
Mg 8.1064476966 0.0000000000 -1.9735314811 
Mg 9.2486327839 0.0000000000 1.5995540087 
Mg 11.9596631972 2.0285166975 2.0575441842 
Mg 13.1017974835 2.0285166975 -1.3292666941 
Si 7.8915218434 2.0285166975 0.1817538506 
Si 9.6811859401 2.0285166975 3.6165542226 
Al 10.1710791512 2.0285166975 -0.7450169529 
Al 11.0371617955 0.0000000000 -2.5577843974 
Si 11.5270841114 0.0000000000 0.0405444995 
Si 13.3166815318 0.0000000000 -3.4845991226 

