&CONTROL
/
&SYSTEM
   ntyp             = 1
   nat              = 254
   ibrav            = 0
/
&ELECTRONS
/
&IONS
/
&CELL
/

ATOMIC_SPECIES
Al 26.9815385 Al_dummy.UPF

K_POINTS gamma

CELL_PARAMETERS angstrom
16.22799863997135 0.00000000000000 0.00000000000000
0.00000000000000 16.22799863997135 0.00000000000000
0.00000000000000 0.00000000000000 16.22799863997135

ATOMIC_POSITIONS angstrom
Al 1.9931459636 0.0029909096 1.9931459636 
Al 1.9624896694 2.0284997638 0.0000000000 
Al 0.0000000000 2.0284997638 1.9624896694 
Al 0.0000000000 0.0150651460 4.0367029358 
Al 2.0263364874 2.0284997638 4.0517395062 
Al 2.0262528774 16.2279393721 6.0841223724 
Al 0.0000000000 2.0284997638 6.0860856199 
Al 0.0000000000 16.2274049031 8.1139995846 
Al 2.0298772121 2.0284997638 8.1139995846 
Al 2.0262528774 16.2279393721 10.1438762675 
Al 0.0000000000 2.0284997638 10.1419130201 
Al 0.0000000000 0.0150651460 12.1912957042 
Al 2.0263364874 2.0284997638 12.1762596629 
Al 1.9931459636 0.0029909096 14.2348532056 
Al 0.0000000000 2.0284997638 14.2655089705 
Al 1.9923178013 6.0492945743 0.0000000000 
Al 1.9931459636 4.0540091473 1.9931459636 
Al 0.0000000000 6.0492945743 1.9923178013 
Al 0.0000000000 4.0419343817 4.0367029358 
Al 2.0247410181 6.0822914193 4.0543647544 
Al 2.0262528774 4.0570593247 6.0841223724 
Al 0.0000000000 6.0832185378 6.0843377476 
Al 0.0000000000 4.0575937937 8.1139995846 
Al 2.0296718914 6.0865909841 8.1139995846 
Al 2.0262528774 4.0570593247 10.1438762675 
Al 0.0000000000 6.0832185378 10.1436608924 
Al 0.0000000000 4.0419343817 12.1912957042 
Al 2.0247410181 6.0822914193 12.1736338856 
Al 1.9931459636 4.0540091473 14.2348532056 
Al 0.0000000000 6.0492945743 14.2356808387 
Al 0.0000000000 8.1100027091 0.0000000000 
Al 2.0273937835 10.1424993484 0.0000000000 
Al 2.0274234174 8.1109589323 2.0274234174 
Al 0.0000000000 10.1424993484 2.0273937835 
Al 0.0000000000 8.0999494005 4.0432202823 
Al 2.0258136603 10.1424993484 4.0570370993 
Al 2.0274572847 8.1142445936 6.0846192698 
Al 0.0000000000 10.1424993484 6.0814934201 
Al 0.0000000000 8.1142758151 8.1139995846 
Al 2.0285304561 10.1424993484 8.1139995846 
Al 2.0274572847 8.1142445936 10.1433798993 
Al 0.0000000000 10.1424993484 10.1465057491 
Al 0.0000000000 8.0999494005 12.1847783577 
Al 2.0258136603 10.1424993484 12.1709615407 
Al 2.0274234174 8.1109589323 14.2005752226 
Al 0.0000000000 10.1424993484 14.2006053857 
Al 0.0000000000 12.1749959877 0.0000000000 
Al 1.9923178013 14.2357041225 0.0000000000 
Al 2.0274234174 12.1740397645 2.0274234174 
Al 0.0000000000 14.2357041225 1.9923178013 
Al 0.0000000000 12.1850487672 4.0432202823 
Al 2.0247410181 14.2027067484 4.0543647544 
Al 2.0274572847 12.1707541032 6.0846192698 
Al 0.0000000000 14.2017801591 6.0843377476 
Al 0.0000000000 12.1707223526 8.1139995846 
Al 2.0296718914 14.1984077127 8.1139995846 
Al 2.0274572847 12.1707541032 10.1433798993 
Al 0.0000000000 14.2017801591 10.1436608924 
Al 0.0000000000 12.1850487672 12.1847783577 
Al 2.0247410181 14.2027067484 12.1736338856 
Al 2.0274234174 12.1740397645 14.2005752226 
Al 0.0000000000 14.2357041225 14.2356808387 
Al 4.0367029358 0.0150651460 0.0000000000 
Al 6.0860856199 2.0284997638 0.0000000000 
Al 6.0841223724 16.2279393721 2.0262528774 
Al 4.0517395062 2.0284997638 2.0263364874 
Al 4.0462821017 16.2253337035 4.0462821017 
Al 6.0826941232 2.0284997638 4.0570460953 
Al 6.0840017200 0.0003519028 6.0840017200 
Al 4.0570460953 2.0284997638 6.0826941232 
Al 4.0569677771 0.0002428923 8.1139995846 
Al 6.0860813865 2.0284997638 8.1139995846 
Al 6.0840017200 0.0003519028 10.1439974491 
Al 4.0570460953 2.0284997638 10.1453050460 
Al 4.0462821017 16.2253337035 12.1817165383 
Al 6.0826941232 2.0284997638 12.1709525447 
Al 6.0841223724 16.2279393721 14.2017457626 
Al 4.0517395062 2.0284997638 14.2016626817 
Al 4.0367029358 4.0419343817 0.0000000000 
Al 6.0843377476 6.0832185378 0.0000000000 
Al 6.0841223724 4.0570593247 2.0262528774 
Al 4.0543647544 6.0822914193 2.0247410181 
Al 4.0462821017 4.0596649933 4.0462821017 
Al 6.0842313830 6.0843451561 4.0564481250 
Al 6.0840017200 4.0566476249 6.0840017200 
Al 4.0564481250 6.0843451561 6.0842313830 
Al 4.0569677771 4.0567571645 8.1139995846 
Al 6.0853807559 6.0853236047 8.1139995846 
Al 6.0840017200 4.0566476249 10.1439974491 
Al 4.0564481250 6.0843451561 10.1437672570 
Al 4.0462821017 4.0596649933 12.1817165383 
Al 6.0842313830 6.0843451561 12.1715505149 
Al 6.0841223724 4.0570593247 14.2017457626 
Al 4.0543647544 6.0822914193 14.2032576218 
Al 4.0432202823 8.0999494005 0.0000000000 
Al 6.0814934201 10.1424993484 0.0000000000 
Al 6.0846192698 8.1142445936 2.0274572847 
Al 4.0570370993 10.1424993484 2.0258136603 
Al 4.0591114739 8.1162697548 4.0591114739 
Al 6.0862242643 10.1424993484 4.0563936198 
Al 6.0853442426 8.1135646009 6.0853442426 
Al 4.0563936198 10.1424993484 6.0862242643 
Al 4.0580049644 8.1139985262 8.1139995846 
Al 6.0849547682 10.1424993484 8.1139995846 
Al 6.0853442426 8.1135646009 10.1426543973 
Al 4.0563936198 10.1424993484 10.1417749048 
Al 4.0591114739 8.1162697548 12.1688871660 
Al 6.0862242643 10.1424993484 12.1716055494 
Al 6.0846192698 8.1142445936 14.2005418844 
Al 4.0570370993 10.1424993484 14.2021855088 
Al 4.0432202823 12.1850487672 0.0000000000 
Al 6.0843377476 14.2017801591 0.0000000000 
Al 6.0846192698 12.1707541032 2.0274572847 
Al 4.0543647544 14.2027067484 2.0247410181 
Al 4.0591114739 12.1687289420 4.0591114739 
Al 6.0842313830 14.2006535408 4.0564481250 
Al 6.0853442426 12.1714335668 6.0853442426 
Al 4.0564481250 14.2006535408 6.0842313830 
Al 4.0580049644 12.1709996415 8.1139995846 
Al 6.0853807559 14.1996750921 8.1139995846 
Al 6.0853442426 12.1714335668 10.1426543973 
Al 4.0564481250 14.2006535408 10.1437672570 
Al 4.0591114739 12.1687289420 12.1688871660 
Al 6.0842313830 14.2006535408 12.1715505149 
Al 6.0846192698 12.1707541032 14.2005418844 
Al 4.0543647544 14.2027067484 14.2032576218 
Al 8.1139995846 16.2274049031 0.0000000000 
Al 10.1419130201 2.0284997638 0.0000000000 
Al 10.1438762675 16.2279393721 2.0262528774 
Al 8.1139995846 2.0284997638 2.0298772121 
Al 8.1139995846 0.0002428923 4.0569677771 
Al 10.1453050460 2.0284997638 4.0570460953 
Al 10.1439974491 0.0003519028 6.0840017200 
Al 8.1139995846 2.0284997638 6.0860813865 
Al 8.1139995846 16.2270662297 8.1139995846 
Al 10.1419177827 2.0284997638 8.1139995846 
Al 10.1439974491 0.0003519028 10.1439974491 
Al 8.1139995846 2.0284997638 10.1419177827 
Al 8.1139995846 0.0002428923 12.1710308629 
Al 10.1453050460 2.0284997638 12.1709525447 
Al 10.1438762675 16.2279393721 14.2017457626 
Al 8.1139995846 2.0284997638 14.1981214278 
Al 8.1139995846 4.0575937937 0.0000000000 
Al 10.1436608924 6.0832185378 0.0000000000 
Al 10.1438762675 4.0570593247 2.0262528774 
Al 8.1139995846 6.0865909841 2.0296718914 
Al 8.1139995846 4.0567571645 4.0569677771 
Al 10.1437672570 6.0843451561 4.0564481250 
Al 10.1439974491 4.0566476249 6.0840017200 
Al 8.1139995846 6.0853236047 6.0853807559 
Al 8.1139995846 4.0579319379 8.1139995846 
Al 10.1426178841 6.0853236047 8.1139995846 
Al 10.1439974491 4.0566476249 10.1439974491 
Al 8.1139995846 6.0853236047 10.1426178841 
Al 8.1139995846 4.0567571645 12.1710308629 
Al 10.1437672570 6.0843451561 12.1715505149 
Al 10.1438762675 4.0570593247 14.2017457626 
Al 8.1139995846 6.0865909841 14.1983267486 
Al 8.1139995846 8.1142758151 0.0000000000 
Al 10.1465057491 10.1424993484 0.0000000000 
Al 10.1433798993 8.1142445936 2.0274572847 
Al 8.1139995846 10.1424993484 2.0285304561 
Al 8.1139995846 8.1139985262 4.0580049644 
Al 10.1417749048 10.1424993484 4.0563936198 
Al 10.1426543973 8.1135646009 6.0853442426 
Al 8.1139995846 10.1424993484 6.0849547682 
Al 8.1139995846 8.1149494577 8.1139995846 
Al 10.1430444010 10.1424993484 8.1139995846 
Al 10.1426543973 8.1135646009 10.1426543973 
Al 8.1139995846 10.1424993484 10.1430444010 
Al 8.1139995846 8.1139985262 12.1699942047 
Al 10.1417749048 10.1424993484 12.1716055494 
Al 10.1433798993 8.1142445936 14.2005418844 
Al 8.1139995846 10.1424993484 14.1994687130 
Al 8.1139995846 12.1707223526 0.0000000000 
Al 10.1436608924 14.2017801591 0.0000000000 
Al 10.1433798993 12.1707541032 2.0274572847 
Al 8.1139995846 14.1984077127 2.0296718914 
Al 8.1139995846 12.1709996415 4.0580049644 
Al 10.1437672570 14.2006535408 4.0564481250 
Al 10.1426543973 12.1714335668 6.0853442426 
Al 8.1139995846 14.1996750921 6.0853807559 
Al 8.1139995846 12.1700492392 8.1139995846 
Al 10.1426178841 14.1996750921 8.1139995846 
Al 10.1426543973 12.1714335668 10.1426543973 
Al 8.1139995846 14.1996750921 10.1426178841 
Al 8.1139995846 12.1709996415 12.1699942047 
Al 10.1437672570 14.2006535408 12.1715505149 
Al 10.1433798993 12.1707541032 14.2005418844 
Al 8.1139995846 14.1984077127 14.1983267486 
Al 12.1912957042 0.0150651460 0.0000000000 
Al 14.2655089705 2.0284997638 0.0000000000 
Al 14.2348532056 0.0029909096 1.9931459636 
Al 12.1762596629 2.0284997638 2.0263364874 
Al 12.1817165383 16.2253337035 4.0462821017 
Al 14.2016626817 2.0284997638 4.0517395062 
Al 14.2017457626 16.2279393721 6.0841223724 
Al 12.1709525447 2.0284997638 6.0826941232 
Al 12.1710308629 0.0002428923 8.1139995846 
Al 14.1981214278 2.0284997638 8.1139995846 
Al 14.2017457626 16.2279393721 10.1438762675 
Al 12.1709525447 2.0284997638 10.1453050460 
Al 12.1817165383 16.2253337035 12.1817165383 
Al 14.2016626817 2.0284997638 12.1762596629 
Al 14.2348532056 0.0029909096 14.2348532056 
Al 12.1762596629 2.0284997638 14.2016626817 
Al 12.1912957042 4.0419343817 0.0000000000 
Al 14.2356808387 6.0492945743 0.0000000000 
Al 14.2348532056 4.0540091473 1.9931459636 
Al 12.1736338856 6.0822914193 2.0247410181 
Al 12.1817165383 4.0596649933 4.0462821017 
Al 14.2032576218 6.0822914193 4.0543647544 
Al 14.2017457626 4.0570593247 6.0841223724 
Al 12.1715505149 6.0843451561 6.0842313830 
Al 12.1710308629 4.0567571645 8.1139995846 
Al 14.1983267486 6.0865909841 8.1139995846 
Al 14.2017457626 4.0570593247 10.1438762675 
Al 12.1715505149 6.0843451561 10.1437672570 
Al 12.1817165383 4.0596649933 12.1817165383 
Al 14.2032576218 6.0822914193 12.1736338856 
Al 14.2348532056 4.0540091473 14.2348532056 
Al 12.1736338856 6.0822914193 14.2032576218 
Al 12.1847783577 8.0999494005 0.0000000000 
Al 14.2006053857 10.1424993484 0.0000000000 
Al 14.2005752226 8.1109589323 2.0274234174 
Al 12.1709615407 10.1424993484 2.0258136603 
Al 12.1688871660 8.1162697548 4.0591114739 
Al 14.2021855088 10.1424993484 4.0570370993 
Al 14.2005418844 8.1142445936 6.0846192698 
Al 12.1716055494 10.1424993484 6.0862242643 
Al 12.1699942047 8.1139985262 8.1139995846 
Al 14.1994687130 10.1424993484 8.1139995846 
Al 14.2005418844 8.1142445936 10.1433798993 
Al 12.1716055494 10.1424993484 10.1417749048 
Al 12.1688871660 8.1162697548 12.1688871660 
Al 14.2021855088 10.1424993484 12.1709615407 
Al 14.2005752226 8.1109589323 14.2005752226 
Al 12.1709615407 10.1424993484 14.2021855088 
Al 12.1847783577 12.1850487672 0.0000000000 
Al 14.2356808387 14.2357041225 0.0000000000 
Al 14.2005752226 12.1740397645 2.0274234174 
Al 12.1736338856 14.2027067484 2.0247410181 
Al 12.1688871660 12.1687289420 4.0591114739 
Al 14.2032576218 14.2027067484 4.0543647544 
Al 14.2005418844 12.1707541032 6.0846192698 
Al 12.1715505149 14.2006535408 6.0842313830 
Al 12.1699942047 12.1709996415 8.1139995846 
Al 14.1983267486 14.1984077127 8.1139995846 
Al 14.2005418844 12.1707541032 10.1433798993 
Al 12.1715505149 14.2006535408 10.1437672570 
Al 12.1688871660 12.1687289420 12.1688871660 
Al 14.2032576218 14.2027067484 12.1736338856 
Al 14.2005752226 12.1740397645 14.2005752226 
Al 12.1736338856 14.2027067484 14.2032576218 

