&CONTROL
/
&SYSTEM
   ntyp             = 2
   nat              = 255
   ibrav            = 0
/
&ELECTRONS
/
&IONS
/
&CELL
/

ATOMIC_SPECIES
Al 26.9815385 Al_dummy.UPF
Si 28.085 Si_dummy.UPF

K_POINTS gamma

CELL_PARAMETERS angstrom
16.22799863997135 0.00000000000000 0.00000000000000
0.00000000000000 16.22799863997135 0.00000000000000
0.00000000000000 0.00000000000000 16.22799863997135

ATOMIC_POSITIONS angstrom
Al 1.9902984610 0.0051547152 1.9902984610 
Al 1.9811389327 2.0057208016 0.0000000000 
Al 0.0000000000 2.0057208016 1.9811389327 
Al 0.0000000000 0.0049351067 4.0480294448 
Al 2.0261205831 2.0277324569 4.0510007748 
Al 2.0275149651 0.0004625009 6.0853722890 
Al 0.0000000000 2.0286786257 6.0841535939 
Al 0.0000000000 0.0006212540 8.1139995846 
Al 2.0290384662 2.0292956464 8.1139995846 
Al 2.0275149651 0.0004625009 10.1426263510 
Al 0.0000000000 2.0286786257 10.1438455752 
Al 0.0000000000 0.0049351067 12.1799691952 
Al 2.0261205831 2.0277324569 12.1769983943 
Al 1.9902984610 0.0051547152 14.2377001790 
Al 0.0000000000 2.0057208016 14.2468597073 
Si 0.0000000000 4.0628723364 0.0000000000 
Al 2.0161995688 6.0750448666 0.0000000000 
Al 2.0135076443 4.0532169690 2.0135076443 
Al 0.0000000000 6.0750448666 2.0161995688 
Al 0.0000000000 4.0425609275 4.0360975571 
Al 2.0260036349 6.0828592264 4.0532233191 
Al 2.0263412500 4.0570778459 6.0819749713 
Al 0.0000000000 6.0828597556 6.0815013577 
Al 0.0000000000 4.0576033189 8.1139995846 
Al 2.0285823155 6.0857136083 8.1139995846 
Al 2.0263412500 4.0570778459 10.1460241978 
Al 0.0000000000 6.0828597556 10.1464972822 
Al 0.0000000000 4.0425609275 12.1919016121 
Al 2.0260036349 6.0828592264 12.1747758500 
Al 2.0135076443 4.0532169690 14.2144915249 
Al 0.0000000000 6.0750448666 14.2117996004 
Al 0.0000000000 8.1091856595 0.0000000000 
Al 2.0275901082 10.1399577103 0.0000000000 
Al 2.0278266504 8.1099058697 2.0278266504 
Al 0.0000000000 10.1399577103 2.0275901082 
Al 0.0000000000 8.1092925533 4.0529375634 
Al 2.0268048092 10.1432253796 4.0565894154 
Al 2.0281711448 8.1134196064 6.0851309842 
Al 0.0000000000 10.1438757383 6.0829359571 
Al 0.0000000000 8.1131835933 8.1139995846 
Al 2.0285505649 10.1421881922 8.1139995846 
Al 2.0281711448 8.1134196064 10.1428676558 
Al 0.0000000000 10.1438757383 10.1450626828 
Al 0.0000000000 8.1092925533 12.1750610765 
Al 2.0268048092 10.1432253796 12.1714092246 
Al 2.0278266504 8.1099058697 14.2001719895 
Al 0.0000000000 10.1399577103 14.2004090609 
Al 0.0000000000 12.1735296377 0.0000000000 
Al 1.9928480368 14.2358840428 0.0000000000 
Al 2.0267286077 12.1735830846 2.0267286077 
Al 0.0000000000 14.2358840428 1.9928480368 
Al 0.0000000000 12.1848429173 4.0425709819 
Al 2.0265074117 14.2019076908 4.0538350480 
Al 2.0270450557 12.1709525447 6.0840609879 
Al 0.0000000000 14.2005291842 6.0853998062 
Al 0.0000000000 12.1706027585 8.1139995846 
Al 2.0290548707 14.1988522216 8.1139995846 
Al 2.0270450557 12.1709525447 10.1439381813 
Al 0.0000000000 14.2005291842 10.1425993629 
Al 0.0000000000 12.1848429173 12.1854281873 
Al 2.0265074117 14.2019076908 12.1741635920 
Al 2.0267286077 12.1735830846 14.2012700322 
Al 0.0000000000 14.2358840428 14.2351511323 
Al 4.0480294448 0.0049351067 0.0000000000 
Al 6.0841535939 2.0286786257 0.0000000000 
Al 6.0853722890 0.0004625009 2.0275149651 
Al 4.0510007748 2.0277324569 2.0261205831 
Al 4.0437843852 16.2269603943 4.0437843852 
Al 6.0834587842 2.0276012209 4.0565872987 
Al 6.0837037933 0.0001407611 6.0837037933 
Al 4.0565872987 2.0276012209 6.0834587842 
Al 4.0572699373 0.0002338963 8.1139995846 
Al 6.0858914119 2.0287347185 8.1139995846 
Al 6.0837037933 0.0001407611 10.1442948467 
Al 4.0565872987 2.0276012209 10.1445398557 
Al 4.0437843852 16.2269603943 12.1842142548 
Al 6.0834587842 2.0276012209 12.1714118705 
Al 6.0853722890 0.0004625009 14.2004842041 
Al 4.0510007748 2.0277324569 14.2018780569 
Al 4.0360975571 4.0425609275 0.0000000000 
Al 6.0815013577 6.0828597556 0.0000000000 
Al 6.0819749713 4.0570778459 2.0263412500 
Al 4.0532233191 6.0828592264 2.0260036349 
Al 4.0546674437 4.0596480596 4.0546674437 
Al 6.0852087733 6.0853511219 4.0561380272 
Al 6.0852870915 4.0566338662 6.0852870915 
Al 4.0561380272 6.0853511219 6.0852087733 
Al 4.0559702780 4.0567238264 8.1139995846 
Al 6.0851558555 6.0850928835 8.1139995846 
Al 6.0852870915 4.0566338662 10.1427115485 
Al 4.0561380272 6.0853511219 10.1427903959 
Al 4.0546674437 4.0596480596 12.1733311962 
Al 6.0852087733 6.0853511219 12.1718611419 
Al 6.0819749713 4.0570778459 14.2016573900 
Al 4.0532233191 6.0828592264 14.2019950050 
Al 4.0529375634 8.1092925533 0.0000000000 
Al 6.0829359571 10.1438757383 0.0000000000 
Al 6.0851309842 8.1134196064 2.0281711448 
Al 4.0565894154 10.1432253796 2.0268048092 
Al 4.0573794769 8.1147631873 4.0573794769 
Al 6.0860427565 10.1422903234 4.0565984114 
Al 6.0852516366 8.1138651736 6.0852516366 
Al 4.0565984114 10.1422903234 6.0860427565 
Al 4.0577366716 8.1138037890 8.1139995846 
Al 6.0849103173 10.1426173549 8.1139995846 
Al 6.0852516366 8.1138651736 10.1427475325 
Al 4.0565984114 10.1422903234 10.1419564126 
Al 4.0573794769 8.1147631873 12.1706191630 
Al 6.0860427565 10.1422903234 12.1714002286 
Al 6.0851309842 8.1134196064 14.1998274952 
Al 4.0565894154 10.1432253796 14.2011938307 
Al 4.0425709819 12.1848429173 0.0000000000 
Al 6.0853998062 14.2005291842 0.0000000000 
Al 6.0840609879 12.1709525447 2.0270450557 
Al 4.0538350480 14.2019076908 2.0265074117 
Al 4.0592903358 12.1685082751 4.0592903358 
Al 6.0843874902 14.2006355488 4.0570434494 
Al 6.0855971893 12.1713145019 6.0855971893 
Al 4.0570434494 14.2006355488 6.0843874902 
Al 4.0566629710 12.1712626425 8.1139995846 
Al 6.0855532676 14.1996073575 8.1139995846 
Al 6.0855971893 12.1713145019 10.1424014506 
Al 4.0570434494 14.2006355488 10.1436116789 
Al 4.0592903358 12.1685082751 12.1687083041 
Al 6.0843874902 14.2006355488 12.1709551906 
Al 6.0840609879 12.1709525447 14.2009535843 
Al 4.0538350480 14.2019076908 14.2014917575 
Al 8.1139995846 0.0006212540 0.0000000000 
Al 10.1438455752 2.0286786257 0.0000000000 
Al 10.1426263510 0.0004625009 2.0275149651 
Al 8.1139995846 2.0292956464 2.0290384662 
Al 8.1139995846 0.0002338963 4.0572699373 
Al 10.1445398557 2.0276012209 4.0565872987 
Al 10.1442948467 0.0001407611 6.0837037933 
Al 8.1139995846 2.0287347185 6.0858914119 
Al 8.1139995846 16.2279314345 8.1139995846 
Al 10.1421072281 2.0287347185 8.1139995846 
Al 10.1442948467 0.0001407611 10.1442948467 
Al 8.1139995846 2.0287347185 10.1421072281 
Al 8.1139995846 0.0002338963 12.1707287027 
Al 10.1445398557 2.0276012209 12.1714118705 
Al 10.1426263510 0.0004625009 14.2004842041 
Al 8.1139995846 2.0292956464 14.1989601737 
Al 8.1139995846 4.0576033189 0.0000000000 
Al 10.1464972822 6.0828597556 0.0000000000 
Al 10.1460241978 4.0570778459 2.0263412500 
Al 8.1139995846 6.0857136083 2.0285823155 
Al 8.1139995846 4.0567238264 4.0559702780 
Al 10.1427903959 6.0853511219 4.0561380272 
Al 10.1427115485 4.0566338662 6.0852870915 
Al 8.1139995846 6.0850928835 6.0851558555 
Al 8.1139995846 4.0579986143 8.1139995846 
Al 10.1428427844 6.0850928835 8.1139995846 
Al 10.1427115485 4.0566338662 10.1427115485 
Al 8.1139995846 6.0850928835 10.1428427844 
Al 8.1139995846 4.0567238264 12.1720288911 
Al 10.1427903959 6.0853511219 12.1718611419 
Al 10.1460241978 4.0570778459 14.2016573900 
Al 8.1139995846 6.0857136083 14.1994168537 
Al 8.1139995846 8.1131835933 0.0000000000 
Al 10.1450626828 10.1438757383 0.0000000000 
Al 10.1428676558 8.1134196064 2.0281711448 
Al 8.1139995846 10.1421881922 2.0285505649 
Al 8.1139995846 8.1138037890 4.0577366716 
Al 10.1419564126 10.1422903234 4.0565984114 
Al 10.1427475325 8.1138651736 6.0852516366 
Al 8.1139995846 10.1426173549 6.0849103173 
Al 8.1139995846 8.1140588524 8.1139995846 
Al 10.1430888518 10.1426173549 8.1139995846 
Al 10.1427475325 8.1138651736 10.1427475325 
Al 8.1139995846 10.1426173549 10.1430888518 
Al 8.1139995846 8.1138037890 12.1702619684 
Al 10.1419564126 10.1422903234 12.1714002286 
Al 10.1428676558 8.1134196064 14.1998274952 
Al 8.1139995846 10.1421881922 14.1994486043 
Al 8.1139995846 12.1706027585 0.0000000000 
Al 10.1425993629 14.2005291842 0.0000000000 
Al 10.1439381813 12.1709525447 2.0270450557 
Al 8.1139995846 14.1988522216 2.0290548707 
Al 8.1139995846 12.1712626425 4.0566629710 
Al 10.1436116789 14.2006355488 4.0570434494 
Al 10.1424014506 12.1713145019 6.0855971893 
Al 8.1139995846 14.1996073575 6.0855532676 
Al 8.1139995846 12.1701302033 8.1139995846 
Al 10.1424459015 14.1996073575 8.1139995846 
Al 10.1424014506 12.1713145019 10.1424014506 
Al 8.1139995846 14.1996073575 10.1424459015 
Al 8.1139995846 12.1712626425 12.1713356690 
Al 10.1436116789 14.2006355488 12.1709551906 
Al 10.1439381813 12.1709525447 14.2009535843 
Al 8.1139995846 14.1988522216 14.1989437692 
Al 12.1799691952 0.0049351067 0.0000000000 
Al 14.2468597073 2.0057208016 0.0000000000 
Al 14.2377001790 0.0051547152 1.9902984610 
Al 12.1769983943 2.0277324569 2.0261205831 
Al 12.1842142548 16.2269603943 4.0437843852 
Al 14.2018780569 2.0277324569 4.0510007748 
Al 14.2004842041 0.0004625009 6.0853722890 
Al 12.1714118705 2.0276012209 6.0834587842 
Al 12.1707287027 0.0002338963 8.1139995846 
Al 14.1989601737 2.0292956464 8.1139995846 
Al 14.2004842041 0.0004625009 10.1426263510 
Al 12.1714118705 2.0276012209 10.1445398557 
Al 12.1842142548 16.2269603943 12.1842142548 
Al 14.2018780569 2.0277324569 12.1769983943 
Al 14.2377001790 0.0051547152 14.2377001790 
Al 12.1769983943 2.0277324569 14.2018780569 
Al 12.1919016121 4.0425609275 0.0000000000 
Al 14.2117996004 6.0750448666 0.0000000000 
Al 14.2144915249 4.0532169690 2.0135076443 
Al 12.1747758500 6.0828592264 2.0260036349 
Al 12.1733311962 4.0596480596 4.0546674437 
Al 14.2019950050 6.0828592264 4.0532233191 
Al 14.2016573900 4.0570778459 6.0819749713 
Al 12.1718611419 6.0853511219 6.0852087733 
Al 12.1720288911 4.0567238264 8.1139995846 
Al 14.1994168537 6.0857136083 8.1139995846 
Al 14.2016573900 4.0570778459 10.1460241978 
Al 12.1718611419 6.0853511219 10.1427903959 
Al 12.1733311962 4.0596480596 12.1733311962 
Al 14.2019950050 6.0828592264 12.1747758500 
Al 14.2144915249 4.0532169690 14.2144915249 
Al 12.1747758500 6.0828592264 14.2019950050 
Al 12.1750610765 8.1092925533 0.0000000000 
Al 14.2004090609 10.1399577103 0.0000000000 
Al 14.2001719895 8.1099058697 2.0278266504 
Al 12.1714092246 10.1432253796 2.0268048092 
Al 12.1706191630 8.1147631873 4.0573794769 
Al 14.2011938307 10.1432253796 4.0565894154 
Al 14.1998274952 8.1134196064 6.0851309842 
Al 12.1714002286 10.1422903234 6.0860427565 
Al 12.1702619684 8.1138037890 8.1139995846 
Al 14.1994486043 10.1421881922 8.1139995846 
Al 14.1998274952 8.1134196064 10.1428676558 
Al 12.1714002286 10.1422903234 10.1419564126 
Al 12.1706191630 8.1147631873 12.1706191630 
Al 14.2011938307 10.1432253796 12.1714092246 
Al 14.2001719895 8.1099058697 14.2001719895 
Al 12.1714092246 10.1432253796 14.2011938307 
Al 12.1854281873 12.1848429173 0.0000000000 
Al 14.2351511323 14.2358840428 0.0000000000 
Al 14.2012700322 12.1735830846 2.0267286077 
Al 12.1741635920 14.2019076908 2.0265074117 
Al 12.1687083041 12.1685082751 4.0592903358 
Al 14.2014917575 14.2019076908 4.0538350480 
Al 14.2009535843 12.1709525447 6.0840609879 
Al 12.1709551906 14.2006355488 6.0843874902 
Al 12.1713356690 12.1712626425 8.1139995846 
Al 14.1989437692 14.1988522216 8.1139995846 
Al 14.2009535843 12.1709525447 10.1439381813 
Al 12.1709551906 14.2006355488 10.1436116789 
Al 12.1687083041 12.1685082751 12.1687083041 
Al 14.2014917575 14.2019076908 12.1741635920 
Al 14.2012700322 12.1735830846 14.2012700322 
Al 12.1741635920 14.2019076908 14.2014917575 

