&CONTROL
/
&SYSTEM
   ntyp             = 3
   nat              = 22
   ibrav            = 0
/
&ELECTRONS
/
&IONS
/
&CELL
/

ATOMIC_SPECIES
Al 26.9815385 Al_dummy.UPF
Mg 24.305 Mg_dummy.UPF
Si 28.085 Si_dummy.UPF

K_POINTS gamma

CELL_PARAMETERS angstrom
14.51415981659918 0.00000000000000 -4.31685675954080
0.00000000000000 4.12158666460227 0.00000000000000
0.00000000000000 0.00000000000000 6.64555081728478

ATOMIC_POSITIONS angstrom
Al 0.0169061535 0.0000000000 6.5636765193 
Mg 1.0603970452 2.0607933323 1.9130925644 
Mg 2.2421418332 2.0607933323 5.3199740759 
Mg 5.0486326402 0.0000000000 -0.9971783605 
Mg 6.2303959495 0.0000000000 2.4097698274 
Si 0.8542867551 0.0000000000 4.0877563655 
Si 2.6640045513 0.0000000000 0.5772190928 
Al 3.1796316502 0.0000000000 3.0978573667 
Al 4.1110951972 2.0607933323 1.2249293526 
Si 4.6266609116 2.0607933323 3.7455549263 
Si 6.4364157503 2.0607933323 0.2350774506 
Al 7.2738333942 2.0607933323 4.4047245186 
Mg 8.3172639596 0.0000000000 -0.2461996972 
Mg 9.4990389108 0.0000000000 3.1613131227 
Mg 12.3058959084 2.0607933323 -3.1553715210 
Mg 13.4876867349 2.0607933323 0.2522063877 
Si 8.1111901828 2.0607933323 1.9288879749 
Si 9.9211074788 2.0607933323 -1.5813820633 
Al 10.4366171004 2.0607933323 0.9392985448 
Al 11.3682679761 0.0000000000 -0.9333659391 
Si 11.8837167423 0.0000000000 1.5873014396 
Si 13.6936716100 0.0000000000 -1.9229088016 

