&CONTROL
/
&SYSTEM
   ntyp             = 3
   nat              = 22
   ibrav            = 0
/
&ELECTRONS
/
&IONS
/
&CELL
/

ATOMIC_SPECIES
Mg 24.305 Mg_dummy.UPF
Si 28.085 Si_dummy.UPF
Al 26.9815385 Al_dummy.UPF

K_POINTS gamma

CELL_PARAMETERS angstrom
14.74014494437047 0.00000000000000 -4.22319927257474
0.00000000000000 4.05429490297534 0.00341848478024
0.00000000000000 0.00202727789367 6.83716800193879

ATOMIC_POSITIONS angstrom
Mg 0.0206188608 0.0020288654 6.7521583289 
Mg 1.1171904601 2.0279594739 2.0585236912 
Mg 2.3025643454 2.0290866214 5.5083135369 
Mg 5.1091673381 4.0543827464 -0.9478193562 
Mg 6.2944359171 4.0555109522 2.5021271259 
Si 0.8724602880 0.0020987168 4.1711393478 
Si 2.7570026835 4.0546330472 0.6557251779 
Al 3.2162110249 0.0016478578 3.2194670523 
Al 4.1954047688 2.0275266070 1.3376218731 
Si 4.6546760823 2.0288368497 3.9047737654 
Si 6.5391475680 2.0270757480 0.3860427128 
Mg 7.3910509089 2.0291734064 4.6422139590 
Mg 8.4873092353 0.0008181080 -0.0549180109 
Mg 9.6724905001 0.0019426095 3.3949670867 
Mg 12.4793855986 2.0272318553 -3.0610911925 
Mg 13.6644620863 2.0283574152 0.3889515999 
Si 8.2426145181 2.0292437870 2.0610071199 
Si 10.1273966308 2.0274848020 -1.4574783945 
Al 10.5863938306 2.0287929280 1.1096253427 
Al 11.5653663783 4.0546764397 -0.7723172051 
Si 12.0244260210 0.0016901920 1.7913595805 
Si 13.9091382823 4.0542261099 -1.7236053180 

