&CONTROL
/
&SYSTEM
   ntyp             = 2
   nat              = 22
   ibrav            = 0
/
&ELECTRONS
/
&IONS
/
&CELL
/

ATOMIC_SPECIES
Mg 24.305 Mg_dummy.UPF
Si 28.085 Si_dummy.UPF

K_POINTS gamma

CELL_PARAMETERS angstrom
15.65166115640206 0.00000000000000 0.00000000000000
0.00000000000000 4.05703339504001 0.00000000000000
-1.68781388815663 0.00000000000000 6.18865074684859

ATOMIC_POSITIONS angstrom
Mg 2.0998762444 0.0000000000 6.1177753972 
Mg 4.4110682950 2.0285166975 2.2110061045 
Mg 4.6303323431 2.0285166975 5.6521248524 
Mg 9.0831786497 0.0000000000 0.3948614510 
Mg 9.3024215306 0.0000000000 3.8359246353 
Si 3.5827519699 0.0000000000 4.0256489530 
Si 6.3796350356 0.0000000000 1.4608180319 
Si 5.9962842473 0.0000000000 3.8799574710 
Si 7.7172198662 2.0285166975 2.1670478828 
Si 7.3339145872 2.0285166975 4.5861926136 
Si 10.1307997695 2.0285166975 2.0213521673 
Mg 9.9257065580 2.0285166975 6.1177753972 
Mg 12.2368986087 0.0000000000 2.2110061045 
Mg 12.4561626567 0.0000000000 5.6521248524 
Mg 1.2573483361 2.0285166975 0.3948614510 
Mg 1.4765912170 2.0285166975 3.8359246353 
Si 11.4085822836 2.0285166975 4.0256494822 
Si 14.2054653492 2.0285166975 1.4608180319 
Si 13.8221150901 2.0285166975 3.8799580001 
Si -0.1086109766 0.0000000000 2.1670473536 
Si -0.4919151973 0.0000000000 4.5861920844 
Si 2.3049694559 0.0000000000 2.0213521673 

