&CONTROL
/
&SYSTEM
   ntyp             = 3
   nat              = 196
   ibrav            = 0
/
&ELECTRONS
/
&IONS
/
&CELL
/

ATOMIC_SPECIES
Al 26.9815385 Al_dummy.UPF
Si 28.085 Si_dummy.UPF
Mg 24.305 Mg_dummy.UPF

K_POINTS gamma

CELL_PARAMETERS angstrom
28.39899775224416 0.00000000000000 0.00000000000000
0.00000000000000 4.05699952769853 0.00000000000000
0.00000000000000 0.00000000000000 28.39899775224416

ATOMIC_POSITIONS angstrom
Al 1.9072250474 2.0246970964 28.2560717503 
Al 28.3183855419 4.0529603181 28.2864941481 
Al 1.9361361152 4.0533333880 1.9369240600 
Al 28.2862946483 2.0246933922 1.8910560378 
Al 1.8312050369 2.0249532182 3.8802940277 
Al 28.2691884658 4.0532682992 3.9397634918 
Al 1.6683279957 4.0537064579 6.0064751420 
Al 28.1775661944 2.0250140736 6.0068868419 
Al 1.8329126918 2.0252601410 8.1350317328 
Al 28.2721597958 4.0535350045 8.0759639142 
Al 1.9068445690 4.0538159976 10.0838728636 
Al 28.2925183015 2.0251294342 10.1424765938 
Al 1.8492081748 2.0252458532 12.1970028804 
Al 28.2965654488 4.0534334025 12.1745985757 
Al 1.8822124282 4.0533661970 14.2471682176 
Al 28.3044253179 2.0248124570 14.2173157436 
Al 1.9110224231 2.0247394306 16.2636037994 
Al 28.3121989311 4.0530243485 16.2426790741 
Al 1.9284217698 4.0529862477 18.2617822383 
Al 28.3193343566 2.0244192784 18.2510118945 
Al 1.9397191741 2.0244706086 20.2548715799 
Al 28.3246462375 4.0527692851 20.2558558495 
Al 1.9391164412 4.0528322572 22.2563859519 
Al 28.3260178648 2.0243150305 22.2566553031 
Al 1.9343845386 2.0244335662 24.2538134883 
Al 28.3236005833 4.0527650517 24.2608234988 
Al 1.9282667209 4.0529619056 26.2603407560 
Al 28.3179775462 2.0244489123 26.2688975515 
Al 5.9770036756 2.0252611993 28.1300270305 
Al 3.9350728650 4.0533376214 28.2407208486 
Al 5.9799829433 4.0540139099 1.6686121639 
Al 3.8466849247 2.0250447658 1.8282506405 
Si 5.8900148798 2.0258305940 3.3186602621 
Mg 4.1302725793 4.0539869218 4.1859843561 
Mg 5.8998644553 2.0261639756 6.0343320887 
Si 3.2776791913 2.0254606991 6.0065000133 
Si 6.0192738220 2.0263454834 8.7460890623 
Mg 4.1559948252 4.0542726775 7.8180609338 
Al 5.8095810022 4.0547452328 10.3038602969 
Al 3.8234683329 2.0256792493 10.1776594698 
Al 5.7091743891 2.0260348564 12.3183897824 
Al 3.7766837757 4.0540207892 12.2110641772 
Al 5.9014297614 4.0539477627 14.3586859646 
Al 3.8844475396 2.0252384447 14.2854425469 
Al 6.0079647758 2.0252770746 16.2574515852 
Al 3.9218989983 4.0533672553 16.2851079737 
Al 5.9682997688 4.0533910683 18.2906102252 
Al 3.9518239696 2.0247881149 18.2672661017 
Al 5.9806872782 2.0247859982 20.2696800750 
Al 3.9525330670 4.0530243485 20.2635246856 
Al 5.9840872417 4.0531471176 22.2532431684 
Al 3.9580693190 2.0245489268 22.2545613489 
Al 5.9844698369 2.0248468536 24.2266693433 
Al 3.9594023164 4.0530248777 24.2485788673 
Al 5.9901098076 4.0534185855 26.2063207588 
Al 3.9431893850 2.0247542476 26.2307190033 
Al 10.0338862551 2.0253617430 28.1750795907 
Al 8.0834009707 4.0538890241 28.2665891473 
Mg 10.3204425940 4.0545287993 2.1240284214 
Al 8.0126632071 2.0256305650 1.7814554998 
Si 9.5597752251 2.0262983867 3.8220649549 
Mg 7.5927256357 4.0547558163 4.2496729501 
Mg 10.5532466993 4.0552548304 5.5740982018 
Si 8.5326189756 2.0266227723 5.9714600151 
Al 10.1056649103 2.0270445265 7.9004231332 
Mg 7.7080767424 4.0551701621 7.7145856221 
Si 9.8982004557 4.0555252400 9.4430196821 
Mg 8.2328993537 2.0267984591 10.4455564910 
Mg 10.0250352371 4.0552389551 12.1904093324 
Si 7.3821930116 4.0547563455 12.2676591507 
Si 10.0925857664 4.0544282556 14.8566787621 
Mg 8.2700502397 2.0260512609 14.0302161448 
Al 10.0874358138 2.0256893037 16.4932725297 
Al 7.9682287259 4.0538869073 16.3362984604 
Al 10.0806501744 4.0538493358 18.4032201939 
Al 8.0176544066 2.0251527180 18.3008969010 
Al 10.0814053103 2.0251537763 20.3190411960 
Al 8.0182021050 4.0534159396 20.2962680547 
Al 10.0784911314 4.0534191147 22.2723596952 
Al 8.0253084257 2.0248743708 22.2590672928 
Al 10.0705423605 2.0250400032 24.2246785786 
Al 8.0233277154 4.0533296837 24.2376497704 
Al 10.0764871373 4.0536080310 26.2096466376 
Al 8.0254444243 2.0251056212 26.2066361484 
Al 14.2631858826 2.0251992856 28.1836236859 
Al 12.1396527710 4.0539551712 28.0310560751 
Mg 13.9720727988 4.0543504666 2.0939949688 
Si 12.1443963155 2.0258094269 1.2687214127 
Si 14.8666209436 2.0262571108 3.8557200964 
Mg 12.2257927665 2.0265185244 3.9375832817 
Mg 14.0216196610 4.0552124963 5.6775724552 
Si 12.3571811178 2.0270228303 6.6842860599 
Mg 14.5481615691 2.0267735878 8.4108055568 
Al 12.1508072974 4.0555643991 8.2254628263 
Si 13.7207152113 4.0553469073 10.1573305981 
Mg 11.6998096696 2.0268873609 10.5534599577 
Mg 14.6584262245 2.0264798944 11.8792499575 
Si 12.6879359248 4.0550426304 12.3051947486 
Al 14.2317876820 4.0545303868 14.3457819783 
Mg 11.9204019524 2.0262793363 14.0050590602 
Al 14.1492995384 2.0257268753 16.2596730711 
Al 12.1971986760 4.0541911842 16.3513752483 
Al 14.1995465021 4.0538144101 18.3189307311 
Al 12.1452265946 2.0253855560 18.3164769364 
Al 14.1960962667 2.0251199090 20.2847817342 
Al 12.1456827453 4.0535688718 20.2975867643 
Al 14.1910547954 4.0533630219 22.2620507939 
Al 12.1356812961 2.0250368282 22.2489102654 
Al 14.1981997461 2.0249050631 24.2247468425 
Al 12.1337132860 4.0534804992 24.2033723166 
Al 14.2029612826 4.0534492778 26.2187135599 
Al 12.1385584326 2.0252114567 26.1201490127 
Al 18.3107914564 2.0248791334 28.2318121502 
Al 16.2225063097 4.0535672843 28.2605940987 
Al 18.3572950205 4.0535694010 1.8318919089 
Al 16.3389829763 2.0253421634 1.7579483898 
Al 18.4721825680 2.0255829391 3.9084023336 
Al 16.5409476922 4.0544647689 3.8013640716 
Al 18.4295504644 4.0542557439 5.9426182696 
Al 16.4424852761 2.0262745737 5.8164666561 
Mg 18.0991009927 2.0259681801 8.3036212420 
Si 16.2360008577 4.0549505535 7.3775986951 
Si 18.9721920599 4.0541266246 10.1157086938 
Mg 16.3539433453 4.0549828333 10.0938351538 
Mg 18.1205030358 2.0258353566 11.9396264313 
Si 16.3580963280 4.0546129385 12.8098853421 
Al 18.3992778237 4.0538715612 14.3016851122 
Al 16.2616966447 2.0259036205 14.4626560570 
Al 18.3019526095 2.0252357988 16.2882629282 
Al 16.2569081202 4.0540133807 16.3982820454 
Al 18.2864180833 4.0534053561 18.2956585758 
Al 16.2358384003 2.0253061794 18.3192572335 
Al 18.2642550834 2.0247775314 20.2748115064 
Al 16.2377000458 4.0534222898 20.2964109326 
Al 18.2634851305 4.0530698577 22.2670038926 
Al 16.2348879981 2.0248420910 22.2687448856 
Al 18.2679106395 2.0246066071 24.2551734737 
Al 16.2377392049 4.0531852184 24.2505691028 
Al 18.2733759818 4.0530777954 26.2499805246 
Al 16.2555486639 2.0248299199 26.2262077676 
Al 22.3214329438 2.0245383433 28.2721306911 
Al 20.3231132146 4.0530867914 28.2511250017 
Al 22.3345808808 4.0531682847 1.8991106441 
Al 20.3600746552 2.0249368137 1.8700778656 
Al 22.3481188213 2.0250151319 3.9413478483 
Al 20.3981039755 4.0536540694 3.9209226664 
Al 22.3555992704 4.0535551132 5.9746932879 
Al 20.3440352940 2.0254707535 6.0343818314 
Al 22.3769441624 2.0252119858 8.0421415528 
Al 20.4188598932 4.0539244789 7.9844099067 
Al 22.4719028961 4.0536731198 10.1126246490 
Al 20.5841912583 2.0254522323 10.1135554717 
Al 22.3760980080 2.0250664621 12.1816800251 
Al 20.4163664102 4.0537630799 12.2445610947 
Al 22.3547885709 4.0533196294 14.2336974825 
Al 20.3067558179 2.0251955813 14.1889454950 
Al 22.3173656878 2.0247748855 16.2374724996 
Al 20.3305227539 4.0533788972 16.2714980650 
Al 22.3139773661 4.0530137649 18.2550632752 
Al 20.3033225161 2.0247590101 18.2646001069 
Al 22.3042934231 2.0244822505 20.2613926307 
Al 20.2926310198 4.0530153525 20.2689519271 
Al 22.2995408826 4.0527555265 22.2643024430 
Al 20.2848992115 2.0244399163 22.2647977528 
Al 22.3014750253 2.0242949217 24.2618633320 
Al 20.2847394000 4.0528587160 24.2620839989 
Al 22.3094216795 4.0527983898 26.2646995887 
Al 20.2989001822 2.0245240555 26.2536191471 
Al 26.3114121778 2.0244848964 28.2858882402 
Al 24.3159769936 4.0528936417 28.2882997007 
Al 26.3023611308 4.0530328153 1.9072234599 
Al 24.3122605820 2.0246441787 1.9111928182 
Al 26.2843564054 2.0247568934 3.9380838833 
Al 24.3200633000 4.0532238483 3.9430560324 
Al 26.2657240758 4.0533577301 5.9969658275 
Al 24.3158018359 2.0249775603 5.9922990137 
Al 26.2994638855 2.0250209529 8.0728031387 
Al 24.3497549041 4.0534720324 8.0443767973 
Al 26.3323686537 4.0534275815 10.1233415459 
Al 24.3829385486 2.0250437075 10.1205834742 
Al 26.3243156349 2.0249304636 12.1728057233 
Al 24.3609364186 4.0533413256 12.1809883905 
Al 26.3272790273 4.0531534677 14.2060707279 
Al 24.3382220160 2.0247441932 14.2137348014 
Al 26.3184629349 2.0245013008 16.2291940513 
Al 24.3240538253 4.0529867769 16.2357309774 
Al 26.3150793758 4.0528253779 18.2440971359 
Al 24.3108254534 2.0244774879 18.2427244502 
Al 26.3156022029 2.0243145013 20.2548191914 
Al 24.3110741667 4.0528084442 20.2556118988 
Al 26.3168129604 4.0526819708 22.2605479307 
Al 24.3104153411 2.0242938634 22.2599584272 
Al 26.3174003471 2.0242790464 24.2651929150 
Al 24.3120674323 4.0526570995 24.2642816719 
Al 26.3207754393 4.0527666392 26.2785164057 
Al 24.3149138766 2.0242906883 26.2744189865 

