&CONTROL
/
&SYSTEM
   ntyp             = 3
   nat              = 300
   ibrav            = 0
/
&ELECTRONS
/
&IONS
/
&CELL
/

ATOMIC_SPECIES
Al 26.9815385 Al_dummy.UPF
Mg 24.305 Mg_dummy.UPF
Si 28.085 Si_dummy.UPF

K_POINTS gamma

CELL_PARAMETERS angstrom
20.28499869684709 0.00000000000000 0.00000000000000
0.00000000000000 12.17099911227282 0.00000000000000
0.00000000000000 0.00000000000000 20.28499869684709

ATOMIC_POSITIONS angstrom
Al 2.0040724146 2.0219501375 20.2488844689 
Al 20.2478091808 12.1684659410 20.2470963791 
Al 2.0017027591 12.1693660714 2.0015286598 
Al 20.2476086227 2.0217733923 2.0033379167 
Al 2.0013302183 2.0241208224 4.0345724683 
Al 20.2482155889 12.1681188007 4.0336453499 
Al 1.9977434552 12.1685860642 6.0575222216 
Al 20.2482409894 2.0219152118 6.0586879990 
Al 1.9956547927 2.0250156611 8.0800338161 
Al 20.2489506161 12.1686797286 8.0800158241 
Al 1.9976884208 12.1684791704 10.1016389301 
Al 20.2483103117 2.0217755090 10.1005133702 
Al 2.0012545460 2.0241303476 12.1222015650 
Al 20.2477620841 12.1680807000 12.1226413112 
Al 2.0013455645 12.1693967637 14.1454577118 
Al 20.2475636426 2.0216866073 14.1440675633 
Al 2.0040692396 2.0219199744 16.1756656597 
Al 20.2475186626 12.1685066876 16.1771923360 
Al 2.0028082103 12.1684548282 18.2177467567 
Al 20.2474847952 2.0233820910 18.2177065392 
Al 6.0540026640 2.0243097387 20.2426449404 
Al 4.0330161582 12.1691284708 20.2457332186 
Al 6.0334573588 12.1681812436 1.9820575843 
Al 4.0402902281 2.0251130297 2.0079846218 
Al 6.0837392481 2.0340788792 4.0599830288 
Al 4.0212557238 12.1693480794 4.0163618930 
Al 6.0046896981 0.0093923663 5.9998688937 
Al 4.0307856762 2.0206869915 6.0596717394 
Al 5.9895584049 2.0821884961 8.0858738158 
Al 4.0094566596 12.1664614177 8.0799692565 
Al 6.0095491324 0.0132236093 10.1598034432 
Al 4.0291626897 2.0202488328 10.1023665488 
Al 6.0857199584 2.0367057149 12.0945547016 
Al 4.0229808415 12.1695110660 12.1384557722 
Al 6.0298854126 12.1683331175 14.1686309111 
Al 4.0407955923 2.0253580388 14.1382810105 
Al 6.0544455853 2.0247023882 16.1822533868 
Al 4.0320276551 12.1691723925 16.1799938001 
Al 6.0559426276 12.1678917837 18.2179086849 
Al 4.0351164625 2.0216564442 18.2176795512 
Al 10.0994269694 2.0248950087 20.2350501891 
Al 8.0770783614 12.1676229617 20.2368552126 
Al 10.1086044897 12.1550391276 1.9655615431 
Al 8.0727433417 2.0198911090 1.9787586936 
Al 8.0208172987 0.0016462703 3.9640008664 
Al 8.0223513835 0.0036650814 12.1894726887 
Al 10.1089537467 12.1532039410 14.1819344261 
Al 8.0757945775 2.0210627073 14.1679292221 
Al 10.1003763133 2.0250960960 16.1907286890 
Al 8.0765206086 12.1679134800 16.1896698054 
Al 10.0994883539 12.1684590617 18.2185257055 
Al 8.0782690101 2.0220607356 18.2181007762 
Al 14.1575716366 2.0263417792 20.2317094934 
Al 12.1237065450 12.1646902616 20.2307379240 
Al 14.2025400576 12.1645415628 1.9504826385 
Al 12.1484244125 2.0263169079 1.9558183323 
Al 14.1377724712 2.0551565367 4.0498794483 
Al 12.2045759355 0.0052208624 3.9514191490 
Al 14.2273039635 0.0096241459 5.9786499459 
Al 14.2491637449 2.0953253204 8.0675923307 
Al 14.2243876679 12.1688506528 10.1551853137 
Al 14.1444639170 2.0454842356 12.1009588042 
Al 12.2168687221 12.1702233385 12.2078076207 
Al 14.2032295755 12.1630302327 14.1929630084 
Al 12.1563049195 2.0236683759 14.1962550198 
Al 14.1630015239 2.0260369731 16.1984123421 
Al 12.1243717207 12.1625455063 16.1971306749 
Al 14.1476537973 12.1667604028 18.2178695258 
Al 12.1224666828 2.0223882962 18.2187532517 
Al 18.2169185944 2.0221776837 20.2487902754 
Al 16.1867593308 12.1687432298 20.2389592212 
Al 18.2229951363 12.1692660569 1.9982779242 
Al 16.1771685230 2.0285325728 2.0061965320 
Al 18.2224791885 2.0252924208 4.0332024285 
Al 16.2132986262 12.1683235923 3.9985598424 
Al 18.2276386663 12.1682521534 6.0574650705 
Al 16.2011111459 2.0259205541 6.0519404604 
Al 18.2287531135 2.0249516307 8.0804015943 
Al 16.2108231352 12.1647754591 8.0761052045 
Al 18.2259955710 12.1683135379 10.1015367989 
Al 16.1920526904 2.0197101304 10.1023564944 
Al 18.2212493806 2.0242880424 12.1228164689 
Al 16.1975095658 12.1684595908 12.1417763592 
Al 18.2201725050 12.1691083621 14.1460339858 
Al 16.1790391644 2.0271016777 14.1413068458 
Al 18.2171641326 2.0220464478 16.1759159606 
Al 16.1867450430 12.1683272965 16.1850479717 
Al 18.2187379056 12.1683966188 18.2174287212 
Al 16.1807272398 2.0219908842 18.2186283659 
Mg 8.2776396993 1.9318577174 6.2133199301 
Mg 11.9642892644 1.9526834865 6.2066390678 
Al 10.1103608289 2.0899234794 3.9163971429 
Si 10.1188229017 12.0747290774 5.4967578942 
Si 7.5643389825 12.0572916300 8.0808344613 
Mg 10.1232415314 0.4389546129 8.0886562296 
Mg 8.2801845125 1.9361985581 9.9391809973 
Mg 11.9792533376 1.9421443932 9.9648238666 
Si 12.7182800044 12.0739474827 8.0672414862 
Si 10.1389961953 12.0830948399 10.6824791826 
Al 10.1164569504 2.0942569116 12.2423808846 
Al 2.0023488845 6.0829290778 20.2466407576 
Al 20.2473577927 4.0502493432 20.2488855273 
Al 2.0024795912 4.0509997165 2.0021239841 
Al 20.2475990975 6.0826290344 2.0024155608 
Al 2.0033855426 6.0816214809 4.0349058500 
Al 20.2475456506 4.0527872771 4.0351995433 
Al 2.0009629693 4.0516643631 6.0570967631 
Al 20.2475768720 6.0830502594 6.0592399308 
Al 1.9987383083 6.0830407342 8.0799877777 
Al 20.2478531026 4.0527084297 8.0799830151 
Al 2.0013609106 4.0516712424 10.1021072519 
Al 20.2474657448 6.0830613721 10.0998116812 
Al 2.0033485002 6.0815754425 12.1213681109 
Al 20.2475684052 4.0525554975 12.1211924240 
Al 2.0020805916 4.0511690532 14.1453756894 
Al 20.2473969518 6.0826766603 14.1448226992 
Al 2.0022864415 6.0829163776 16.1778247028 
Al 20.2472974665 4.0503027901 16.1756450218 
Al 2.0043020775 4.0500376723 18.2176530923 
Al 20.2477488546 6.0828708683 18.2174154918 
Al 6.0586234394 6.0814902450 20.2487902754 
Al 4.0347190504 4.0512997600 20.2471614679 
Al 6.0604739721 4.0475743524 2.0044311968 
Al 4.0322181589 6.0831619158 1.9994299430 
Al 6.0566517251 6.0811161167 4.0350037478 
Al 4.0360594563 4.0474309454 4.0369304820 
Al 6.0737806622 4.0374369046 6.0500010259 
Al 4.0395033416 6.0778145801 6.0562320876 
Al 6.0306966413 6.0846145073 8.0803444432 
Al 4.0149431689 4.0703332059 8.0805360053 
Al 6.0784776391 4.0361975716 10.1136253231 
Al 4.0409220657 6.0766043518 10.1027470272 
Al 6.0580122397 6.0797651273 12.1213421812 
Al 4.0364420514 4.0478235949 12.1194228554 
Al 6.0621763352 4.0476627250 14.1413269545 
Al 4.0321864083 6.0833630031 14.1477781539 
Al 6.0586954075 6.0814219811 16.1758794473 
Al 4.0349571802 4.0510775055 16.1772558373 
Al 6.0573724645 4.0532614199 18.2178504754 
Al 4.0345772309 6.0826623725 18.2176176375 
Al 10.0994581908 6.0895083381 20.2329710519 
Al 8.0743409277 4.0527761644 20.2406049623 
Al 10.1026597129 4.0956786776 1.9517082129 
Al 8.0714791374 6.0794624379 2.0069686015 
Al 10.0999889556 6.0921357029 4.0017920569 
Al 8.0740715765 4.0369913374 4.0382063282 
Al 10.0965360743 4.1916301477 6.0449563796 
Al 8.0532939625 6.1179394421 6.0393137630 
Al 10.0985368933 6.1523587154 8.0814705323 
Al 8.0789992747 4.1601467496 8.0847075093 
Al 10.1215190596 4.1819361504 10.1161256854 
Al 8.0608484964 6.1127429219 10.1220323615 
Al 10.1002641277 6.0912863735 12.1526668262 
Al 8.0847773607 4.0311730339 12.1115910327 
Al 10.1042244900 4.0982494204 14.1983637910 
Al 8.0708144908 6.0786575594 14.1392382921 
Al 10.0990703039 6.0911657211 16.1945265939 
Al 8.0735185863 4.0527772227 16.1853030351 
Al 10.0995089918 4.0527057838 18.2182447124 
Al 8.0796676255 6.0833259607 18.2178435961 
Al 14.1449586977 6.0816511149 20.2487717542 
Al 12.1257041889 4.0576128441 20.2361762782 
Al 14.1485481068 4.0532010937 2.0010222372 
Al 12.1287797669 6.0812066060 2.0056684131 
Al 14.1508182770 6.0864253517 4.0333453064 
Al 12.1372053264 4.0498418767 4.0366648350 
Al 14.1344053166 4.0471679443 6.0465047521 
Al 12.1441301394 6.1193946794 6.0390782791 
Al 14.1718848217 6.0860168269 8.0790998184 
Al 12.1254565340 4.1686072348 8.0828691476 
Al 14.1446745296 4.0498376433 10.1092929493 
Al 12.1489726401 6.1237445161 10.1200394801 
Al 14.1528630177 6.0882414879 12.1235123369 
Al 12.1482333795 4.0545155699 12.1288342721 
Al 14.1522227133 4.0533079875 14.1466012638 
Al 12.1292052254 6.0835344566 14.1433325362 
Al 14.1450751167 6.0816050765 16.1758969102 
Al 12.1265535184 4.0591956131 16.1914954668 
Al 14.1461387629 4.0551135401 18.2181616316 
Al 12.1212310540 6.0847563267 18.2180843718 
Al 18.2187215011 6.0829020898 20.2461094636 
Al 16.1778966709 4.0512441964 20.2474451069 
Al 18.2182632336 4.0511679948 2.0022033607 
Al 16.1813013970 6.0837709988 1.9990388810 
Al 18.2171604283 6.0816437064 4.0349719971 
Al 16.1806658552 4.0508499593 4.0373797534 
Al 18.2211954046 4.0530910248 6.0567575605 
Al 16.1729568016 6.0777590165 6.0558214460 
Al 18.2241535052 6.0836683384 8.0799290390 
Al 16.2116973360 4.0815575837 8.0798279662 
Al 18.2207286703 4.0518903217 10.1026380167 
Al 16.1754508138 6.0799334056 10.1034799376 
Al 18.2174133750 6.0817363124 12.1214480166 
Al 16.1828963371 4.0506732141 12.1198747728 
Al 18.2189262927 4.0518781507 14.1457598720 
Al 16.1814495666 6.0839773779 14.1483919995 
Al 18.2186733460 6.0831296360 16.1781083417 
Al 16.1784962286 4.0515310104 16.1771637604 
Al 18.2161586959 4.0497741421 18.2175001601 
Al 16.1783522924 6.0823448662 18.2175938245 
Al 2.0037432664 10.1411012622 20.2481536752 
Al 20.2475726386 8.1087813681 20.2493501449 
Al 2.0017435057 8.1071229267 2.0029860138 
Al 20.2472757702 10.1417733173 2.0034453396 
Al 2.0008031578 10.1386109543 4.0340279450 
Al 20.2475858681 8.1071964824 4.0349270171 
Al 2.0012730672 8.1075049927 6.0561712322 
Al 20.2479679340 10.1405382177 6.0593849254 
Al 1.9968856589 10.1366969203 8.0799951862 
Al 20.2479255998 8.1071546774 8.0799332725 
Al 2.0016043321 8.1076552790 10.1030015614 
Al 20.2477181624 10.1406451115 10.0998413151 
Al 2.0008645424 10.1386808057 12.1223423261 
Al 20.2474308191 8.1074208535 12.1215078137 
Al 2.0012519001 8.1070742424 14.1445888029 
Al 20.2472376695 10.1416023931 14.1441421773 
Al 2.0036353143 10.1411049665 16.1764520171 
Al 20.2475297753 8.1085861017 16.1751555329 
Al 2.0043608162 8.1089369462 18.2175647197 
Al 20.2473366256 10.1380463222 18.2176224000 
Al 6.0567395685 10.1384495552 20.2454120081 
Al 4.0353307793 8.1073144889 20.2457702611 
Al 6.0600453385 8.1107329737 2.0020155028 
Al 4.0310825446 10.1350945717 1.9993950173 
Al 6.0640030549 10.1297461776 4.0428403331 
Al 4.0347216963 8.1094952282 4.0382745921 
Al 6.0582752408 8.1165629190 6.0475826861 
Al 4.0357345415 10.1474535055 6.0568903840 
Al 5.9720262348 10.0487180340 8.0800973174 
Al 4.0090952315 8.0895362513 8.0802698292 
Al 6.0595399743 8.1154214837 10.1114721010 
Al 4.0373146646 10.1492865753 10.1021363567 
Al 6.0619678393 10.1286608352 12.1130478576 
Al 4.0344481117 8.1088872035 12.1177760560 
Al 6.0594690646 8.1106827018 14.1453328260 
Al 4.0305703011 10.1345548110 14.1476384511 
Al 6.0567961905 10.1380764853 16.1797794834 
Al 4.0354789489 8.1075335682 16.1789481460 
Al 6.0584874408 8.1069144309 18.2176948973 
Al 4.0360446393 10.1416928824 18.2177303522 
Al 10.0985675856 10.1316819079 20.2329763436 
Al 8.0749621818 8.1073816944 20.2450415840 
Al 10.0987930151 8.0780552225 1.9636109959 
Al 8.0739085899 10.1441186307 1.9964538503 
Al 10.1031619021 10.0541272834 3.9507349229 
Al 8.0616311495 8.1065651739 4.0328499965 
Al 10.1001905721 8.0539416754 5.9818133673 
Al 8.1260404828 10.1852452251 6.0880605092 
Al 10.0932430045 9.8258381181 8.0779933088 
Al 7.9988993079 8.0513418278 8.0804804417 
Al 10.1004175891 8.0542851114 10.1766550915 
Al 8.1288101963 10.1875942428 10.0726506025 
Al 10.1011764292 10.0565498567 12.2021004445 
Al 8.0610352959 8.1059566202 12.1237155410 
Al 10.0990374949 8.0769455379 14.1835738171 
Al 8.0734852482 10.1428861770 14.1514167764 
Al 10.0984559292 10.1299853657 16.1941408237 
Al 8.0746198041 8.1070832384 16.1797535537 
Al 10.0997841640 8.1076367578 18.2182309538 
Al 8.0785997459 10.1401931941 18.2179314395 
Al 14.1464705570 10.1362756953 20.2427851724 
Al 12.1252538591 8.1056518141 20.2431513630 
Al 14.1429668747 8.1087729013 2.0004390839 
Al 12.1263942360 10.1361640389 1.9880362284 
Al 14.1540028654 10.1092146311 4.0366235592 
Al 12.1368158520 8.1084209984 4.0332098370 
Al 14.1451989442 8.1117389395 6.0473794820 
Al 12.0782671562 10.1989350396 6.0857220752 
Al 14.2365365183 10.0395410428 8.0779044070 
Al 12.1966388065 8.0578819289 8.0796803258 
Al 14.1457053668 8.1119791860 10.1126474036 
Al 12.0702088457 10.2001034629 10.0660612879 
Al 14.1553596758 10.1121817277 12.1134431530 
Al 12.1381107486 8.1104810853 12.1215612606 
Al 14.1431938917 8.1099355036 14.1461863889 
Al 12.1265275887 10.1351268515 14.1591395886 
Al 14.1465658089 10.1364196315 16.1817660146 
Al 12.1257168892 8.1060873269 16.1820327199 
Al 14.1456884331 8.1062254422 18.2175980579 
Al 12.1219121050 10.1383220235 18.2183801818 
Al 18.2168053504 10.1409139335 20.2481499710 
Al 16.1766224121 8.1075161054 20.2462227076 
Al 18.2192829581 8.1068916763 2.0029616717 
Al 16.1850405632 10.1307913026 1.9978879206 
Al 18.2211509537 10.1373975509 4.0338183908 
Al 16.1816866380 8.1073652899 4.0387810147 
Al 18.2201841469 8.1065064353 6.0559325733 
Al 16.1861110887 10.1430914977 6.0573650560 
Al 18.2261506200 10.1363905267 8.0803539683 
Al 16.2101002792 8.0830744684 8.0805270093 
Al 18.2201026536 8.1074727129 10.1035069257 
Al 16.1840695230 10.1452404864 10.1025390605 
Al 18.2202714612 10.1383442490 12.1229609343 
Al 16.1827582219 8.1072366998 12.1184454651 
Al 18.2195068001 8.1067017017 14.1449047217 
Al 16.1852554091 10.1321094831 14.1484925432 
Al 18.2170784059 10.1408620741 16.1762519881 
Al 16.1765869573 8.1077404765 16.1780146774 
Al 18.2161772171 8.1093962720 18.2175694823 
Al 16.1759805202 10.1418262350 18.2177176519 

