&CONTROL
/
&SYSTEM
   ntyp             = 3
   nat              = 100
   ibrav            = 0
/
&ELECTRONS
/
&IONS
/
&CELL
/

ATOMIC_SPECIES
Al 26.9815385 Al_dummy.UPF
Mg 24.305 Mg_dummy.UPF
Si 28.085 Si_dummy.UPF

K_POINTS gamma

CELL_PARAMETERS angstrom
20.28499869684709 0.00000000000000 0.00000000000000
0.00000000000000 4.05699952769853 0.00000000000000
0.00000000000000 0.00000000000000 20.28499869684709

ATOMIC_POSITIONS angstrom
Al 1.9870133289 2.0242891008 20.2392031719 
Al 20.2565511884 4.0527412387 20.2385819178 
Al 1.9832524665 4.0528719455 1.9692208035 
Al 20.2568708114 2.0243176764 1.9711888136 
Al 1.9788581789 2.0244732545 3.9892415609 
Al 20.2579847294 4.0528936417 3.9900713108 
Al 1.9626108510 4.0531460593 6.0191780409 
Al 20.2590129207 2.0245494560 6.0280534011 
Al 1.9455141937 2.0247992276 8.0769307210 
Al 20.2592960306 4.0531804558 8.0750627254 
Al 1.9627336201 4.0531428842 10.1346823427 
Al 20.2584900937 2.0245584520 10.1225091501 
Al 1.9790724957 2.0244695502 12.1639980978 
Al 20.2572761611 4.0528999918 12.1611008525 
Al 1.9831662106 4.0528703579 14.1821206965 
Al 20.2566654906 2.0243176764 14.1793975506 
Al 1.9872885010 2.0242891008 16.1955135094 
Al 20.2563860851 4.0527412387 16.1967353795 
Al 1.9861174319 4.0527306551 18.2173673366 
Al 20.2564961539 2.0242409457 18.2175991162 
Al 6.0133528582 2.0246013153 20.2250466231 
Al 3.9964129705 4.0529100462 20.2331308634 
Al 6.0071916479 4.0532688284 1.9485283871 
Al 4.0015433436 2.0245409891 1.9703289006 
Al 6.0544556397 2.0251595973 4.0167608926 
Al 3.9862771102 4.0532164398 3.9769657080 
Al 5.9617707804 4.0537646674 5.9618152313 
Al 3.9740764004 2.0249500431 6.0164273778 
Al 5.8025313034 2.0255157336 8.0773106702 
Al 3.8818640964 4.0536297272 8.0775122867 
Al 5.9632440098 4.0537641382 10.1932823686 
Al 3.9750019314 2.0249421055 10.1388887723 
Al 6.0574349074 2.0251680641 12.1373534960 
Al 3.9876746672 4.0532127356 12.1773301884 
Al 6.0096274506 4.0532720034 14.2043159763 
Al 4.0030250398 2.0245298764 14.1811618274 
Al 6.0152092118 2.0245976111 16.2104447735 
Al 3.9970432206 4.0529063420 16.2019345456 
Al 6.0146678636 4.0530439280 18.2177319397 
Al 3.9979502303 2.0243314350 18.2173816244 
Al 10.1069979077 2.0249505723 20.1844947151 
Al 8.0454118680 4.0533138084 20.2046463125 
Al 10.1086960374 4.0536593611 1.8371947937 
Al 8.0486980584 2.0250405324 1.9309438284 
Al 7.9988172854 4.0537673133 3.9212354101 
Al 8.0028215693 4.0537731342 12.2344247052 
Al 10.1130268237 4.0536699447 14.3149865106 
Al 8.0539041038 2.0250484701 14.2218243335 
Al 10.1095114995 2.0249569224 16.2527948257 
Al 8.0471782615 4.0533138084 16.2321420975 
Al 10.1068709052 4.0533836598 18.2187712438 
Al 8.0549063655 2.0247542476 18.2182208995 
Al 14.2026062047 2.0245849108 20.2227066015 
Al 12.1693438460 4.0533164543 20.2028735688 
Al 14.2150254647 4.0532635366 1.9421274595 
Al 12.1702201634 2.0250421200 1.9266855394 
Al 14.1742296060 2.0251707100 4.0100043580 
Al 12.2311808489 4.0537646674 3.9155795641 
Al 14.2724967556 4.0537593756 5.9541850251 
Al 14.4358781027 2.0255363715 8.0746123956 
Al 14.2725861866 4.0537736634 10.1938025498 
Al 14.1770829295 2.0251791769 12.1408540033 
Al 12.2338695983 4.0537858345 12.2347406240 
Al 14.2164394262 4.0532799411 14.2079434860 
Al 12.1749695289 2.0250516451 14.2250824775 
Al 14.2044329244 2.0245917901 16.2149692387 
Al 12.1710858973 4.0533217461 16.2345985381 
Al 14.2015690174 4.0530349320 18.2189389929 
Al 12.1595175543 2.0247505433 18.2191009212 
Al 18.2392345265 2.0242906883 20.2376389240 
Al 16.2257083610 4.0529047544 20.2301791129 
Al 18.2451295606 4.0528857041 1.9652779041 
Al 16.2227285641 2.0245404600 1.9645497563 
Al 18.2506949174 2.0244790754 3.9844625616 
Al 16.2436024884 4.0532148523 3.9681527908 
Al 18.2701326547 4.0531545261 6.0134608103 
Al 16.2589607986 2.0249685643 6.0095041523 
Al 18.2890057599 2.0248346825 8.0727565711 
Al 16.3544460636 4.0536519527 8.0725798259 
Al 18.2699320965 4.0531693430 10.1329122449 
Al 16.2599265470 2.0249738561 10.1383585368 
Al 18.2511468347 2.0244970674 12.1653231575 
Al 16.2441284905 4.0532301984 12.1805946826 
Al 18.2449882703 4.0528994627 14.1848994061 
Al 16.2242393651 2.0245536894 14.1863541142 
Al 18.2394483141 2.0242933342 16.1980276303 
Al 16.2260115795 4.0529100462 16.2058139438 
Al 18.2394626019 4.0527285384 18.2181605733 
Al 16.2225290643 2.0243282599 18.2186378911 
Mg 8.3021162620 2.0257713262 6.2583333311 
Mg 11.9358973195 2.0257718553 6.2537702360 
Al 10.1125653812 2.0254702243 3.7588949546 
Si 10.1167236557 4.0542546855 5.4076412768 
Si 7.4493990465 4.0542620940 8.0774588398 
Mg 10.1218476786 4.0546790856 8.0758617830 
Mg 8.3038789513 2.0257787346 9.8958736636 
Mg 11.9382918464 2.0257824389 9.8954804849 
Si 12.7900258506 4.0542790277 8.0740324174 
Si 10.1187302957 4.0542657982 10.7441415570 
Al 10.1180529488 2.0254903331 12.3931879227 

