&CONTROL
/
&SYSTEM
   ntyp             = 2
   nat              = 255
   ibrav            = 0
/
&ELECTRONS
/
&IONS
/
&CELL
/

ATOMIC_SPECIES
Al 26.9815385 Al_dummy.UPF
Mg 24.305 Mg_dummy.UPF

K_POINTS gamma

CELL_PARAMETERS angstrom
16.22799863997135 0.00000000000000 0.00000000000000
0.00000000000000 16.22799863997135 0.00000000000000
0.00000000000000 0.00000000000000 16.22799863997135

ATOMIC_POSITIONS angstrom
Al 1.9967824694 16.2249442291 1.9967824694 
Al 1.9908996063 1.9687635944 16.2050984962 
Al 16.2050984962 1.9687635944 1.9908996063 
Al 16.2244335731 16.2194079771 4.0567158887 
Al 2.0274451137 2.0026097688 4.0811194250 
Al 2.0278726889 16.2211214529 6.0928770802 
Al 16.2240911954 2.0241949072 6.0957732671 
Al 16.2278721666 16.2268751968 8.1152383884 
Al 2.0290813296 2.0288786547 8.1169735605 
Al 2.0280684844 16.2271043305 10.1419781089 
Al 16.2275663022 2.0276626055 10.1419061408 
Al 0.0000121711 16.2269524566 12.1734693115 
Al 2.0272794812 2.0270360597 12.1697634835 
Al 1.9931893561 16.2205340662 14.2263535612 
Al 16.2233302386 1.9904852606 14.2232298281 
Al 16.2015133206 4.0538265811 16.2015133206 
Al 2.0280690136 6.1093265538 16.2046762128 
Mg 2.0249865563 4.0493513295 2.0249865563 
Al 16.2046762128 6.1093265538 2.0280690136 
Al 16.2038946180 4.0448533232 4.0701612233 
Al 2.0273906084 6.1079835020 4.0803373010 
Al 2.0273937835 4.0571185926 6.0871751958 
Al 16.2240583865 6.0878255546 6.0930665257 
Al 16.2278345950 4.0574779039 8.1168126906 
Al 2.0286780966 6.0859993640 8.1166989175 
Al 2.0272747186 4.0570905462 10.1438349917 
Al 16.2275737107 6.0842880049 10.1441292142 
Al 16.2279822355 4.0444003475 12.1807830697 
Al 2.0273382199 6.0845113177 12.1680002650 
Al 2.0270768063 4.0549780708 14.1987495612 
Al 16.2242568279 6.0902306650 14.1905949404 
Al 16.2242901661 8.1228638320 16.2242901661 
Al 2.0280070999 10.1447070757 16.2279261427 
Al 2.0290098907 8.1167661230 2.0290098907 
Al 16.2279261427 10.1447070757 2.0280070999 
Al 16.2242092020 8.1231252456 4.0610980052 
Al 2.0272397929 10.1466375142 4.0570662040 
Al 2.0286791549 8.1205571486 6.0924108751 
Al 16.2279451931 10.1452357238 6.0848912669 
Al 16.2279679477 8.1149536911 8.1150690517 
Al 2.0286796841 10.1433238065 8.1151097984 
Al 2.0286611629 8.1147531329 10.1421670251 
Al 16.2277869691 10.1444297869 10.1441741943 
Al 16.2278658165 8.1151500158 12.1693300874 
Al 2.0272482597 10.1449986524 12.1698031718 
Al 2.0290982633 8.1206608673 14.1922814281 
Al 16.2279351387 10.1430190004 14.1989739323 
Al 16.2277181760 12.1747038819 16.2277181760 
Al 1.9935872974 14.2320247534 16.2279023297 
Al 2.0270900358 12.1730417363 2.0270900358 
Al 16.2279023297 14.2320247534 1.9935872974 
Al 16.2275742398 12.1835982925 4.0445543381 
Al 2.0270667520 14.1976779773 4.0555659866 
Al 2.0272726019 12.1708551761 6.0850817707 
Al 16.2278102529 14.1987003477 6.0871175155 
Al 16.2277896150 12.1706419177 8.1142715817 
Al 2.0290850338 14.1977372452 8.1151965834 
Al 2.0272302677 12.1710483258 10.1438715049 
Al 16.2277478100 14.1996459874 10.1420389643 
Al 16.2278076070 12.1838385389 12.1835273827 
Al 2.0272853022 14.1995285100 12.1716018451 
Al 2.0271567121 12.1727459262 14.2001746354 
Al 16.2274557042 14.2330645866 14.2338795195 
Al 4.0567158887 16.2194079771 16.2244335731 
Al 6.0957732671 2.0241949072 16.2240911954 
Al 6.0928770802 16.2211214529 2.0278726889 
Al 4.0811194250 2.0026097688 2.0274451137 
Al 4.0491788177 16.2180035408 4.0491788177 
Al 6.0931358479 2.0236853096 4.0609112056 
Al 6.0846123905 16.2273657440 6.0846123905 
Al 4.0609112056 2.0236853096 6.0931358479 
Al 4.0575112421 16.2269926741 8.1150193091 
Al 6.0869301867 2.0285479190 8.1152013460 
Al 6.0840810966 16.2276991257 10.1442038282 
Al 4.0575075378 2.0268571978 10.1437762530 
Al 4.0442548238 16.2267820616 12.1827076872 
Al 6.0852532241 2.0271561829 12.1697603084 
Al 6.0867010530 16.2271371395 14.1993348312 
Al 4.0591733877 2.0233286441 14.1917564844 
Al 4.0701612233 4.0448533232 16.2038946180 
Al 6.0930665257 6.0878255546 16.2240583865 
Al 6.0871751958 4.0571185926 2.0273937835 
Al 4.0803373010 6.1079835020 2.0273906084 
Al 4.0824645934 4.0597819415 4.0824645934 
Al 6.0949990808 6.0897475262 4.0606450295 
Al 6.0924870766 4.0567444643 6.0924870766 
Al 4.0606450295 6.0897475262 6.0949990808 
Al 4.0569095676 4.0567127137 8.1166814547 
Al 6.0862062723 6.0852087733 8.1152008168 
Al 6.0866073886 4.0566883715 10.1422585728 
Al 4.0571281178 6.0861687007 10.1421574999 
Al 4.0594141633 4.0594025214 12.1659094859 
Al 6.0867624375 6.0858750074 12.1702471515 
Al 6.0907011035 4.0571593392 14.1941023269 
Al 4.0605349606 6.0876816184 14.1919723887 
Al 4.0610980052 8.1231252456 16.2242092020 
Al 6.0848912669 10.1452357238 16.2279451931 
Al 6.0924108751 8.1205571486 2.0286791549 
Al 4.0570662040 10.1466375142 2.0272397929 
Al 4.0605709447 8.1232411354 4.0605709447 
Al 6.0868238221 10.1433455028 4.0567883860 
Al 6.0859866638 8.1148621434 6.0859866638 
Al 4.0567883860 10.1433455028 6.0868238221 
Al 4.0579509883 8.1150087255 8.1151166777 
Al 6.0849971024 10.1427141944 8.1139223247 
Al 6.0855241629 8.1143710670 10.1427390657 
Al 4.0568444788 10.1425109903 10.1422987903 
Al 4.0570095821 8.1150314801 12.1700391848 
Al 6.0856691574 10.1421405663 12.1714526171 
Al 6.0865502375 8.1147727125 14.1984892060 
Al 4.0571016589 10.1449526140 14.1997100178 
Al 4.0445543381 12.1835982925 16.2275742398 
Al 6.0871175155 14.1987003477 16.2278102529 
Al 6.0850817707 12.1708551761 2.0272726019 
Al 4.0555659866 14.1976779773 2.0270667520 
Al 4.0596914522 12.1686442737 4.0596914522 
Al 6.0853029668 14.1994882926 4.0570720250 
Al 6.0860004224 12.1713938785 6.0860004224 
Al 4.0570720250 14.1994882926 6.0853029668 
Al 4.0569815357 12.1712340670 8.1142969822 
Al 6.0856633365 14.1995380352 8.1138186060 
Al 6.0862798279 12.1712515298 10.1421887214 
Al 4.0574196944 14.2003968898 10.1437318021 
Al 4.0596644641 12.1686659700 12.1683992646 
Al 6.0840223580 14.2008408695 12.1711319358 
Al 6.0844631626 12.1710171043 14.2003529681 
Al 4.0549002817 14.2000629790 14.2001185426 
Al 8.1152383884 16.2268751968 16.2278721666 
Al 10.1419061408 2.0276626055 16.2275663022 
Al 10.1419781089 16.2271043305 2.0280684844 
Al 8.1169735605 2.0288786547 2.0290813296 
Al 8.1150193091 16.2269926741 4.0575112421 
Al 10.1437762530 2.0268571978 4.0575075378 
Al 10.1442038282 16.2276991257 6.0840810966 
Al 8.1152013460 2.0285479190 6.0869301867 
Al 8.1139556629 0.0000809641 8.1139556629 
Al 10.1421167533 2.0284399668 8.1142948655 
Al 10.1440477209 16.2275170887 10.1440477209 
Al 8.1142948655 2.0284399668 10.1421167533 
Al 8.1138302479 0.0001211816 12.1706810768 
Al 10.1438132954 2.0269921380 12.1706535596 
Al 10.1420971737 16.2277758564 14.1996750921 
Al 8.1151341405 2.0289749650 14.1978335554 
Al 8.1168126906 4.0574779039 16.2278345950 
Al 10.1441292142 6.0842880049 16.2275737107 
Al 10.1438349917 4.0570905462 2.0272747186 
Al 8.1166989175 6.0859993640 2.0286780966 
Al 8.1166814547 4.0567127137 4.0569095676 
Al 10.1421574999 6.0861687007 4.0571281178 
Al 10.1422585728 4.0566883715 6.0866073886 
Al 8.1152008168 6.0852087733 6.0862062723 
Al 8.1151785914 4.0579441090 8.1151785914 
Al 10.1428232049 6.0854606616 8.1142969822 
Al 10.1421813129 4.0566751421 10.1421813129 
Al 8.1142969822 6.0854606616 10.1428232049 
Al 8.1151219694 4.0567793900 12.1700915734 
Al 10.1422765648 6.0859422129 12.1710679053 
Al 10.1438593339 4.0570349826 14.1998788254 
Al 8.1152055794 6.0859427421 14.1981552952 
Al 8.1150690517 8.1149536911 16.2279679477 
Al 10.1441741943 10.1444297869 16.2277869691 
Al 10.1421670251 8.1147531329 2.0286611629 
Al 8.1151097984 10.1433238065 2.0286796841 
Al 8.1151166777 8.1150087255 4.0579509883 
Al 10.1422987903 10.1425109903 4.0568444788 
Al 10.1427390657 8.1143710670 6.0855241629 
Al 8.1139223247 10.1427141944 6.0849971024 
Al 8.1138244269 8.1138207227 8.1138244269 
Al 10.1427575869 10.1429719037 8.1142049053 
Al 10.1428644807 8.1143800630 10.1428644807 
Al 8.1142049053 10.1429719037 10.1427575869 
Al 8.1139392584 8.1139546045 12.1701159155 
Al 10.1421871339 10.1423786960 12.1711647447 
Al 10.1421130491 8.1142837527 14.1990691842 
Al 8.1138096100 10.1420299682 14.1995586731 
Al 8.1142715817 12.1706419177 16.2277896150 
Al 10.1420389643 14.1996459874 16.2277478100 
Al 10.1438715049 12.1710483258 2.0272302677 
Al 8.1151965834 14.1977372452 2.0290850338 
Al 8.1142969822 12.1712340670 4.0569815357 
Al 10.1437318021 14.2003968898 4.0574196944 
Al 10.1421887214 12.1712515298 6.0862798279 
Al 8.1138186060 14.1995380352 6.0856633365 
Al 8.1140974824 12.1700921025 8.1140974824 
Al 10.1421590875 14.1990850595 8.1141249996 
Al 10.1422940277 12.1713695363 10.1422940277 
Al 8.1141249996 14.1990850595 10.1421590875 
Al 8.1142223682 12.1711605113 12.1709980539 
Al 10.1438842052 14.2007212755 12.1708244838 
Al 10.1437820740 12.1709361402 14.2003413262 
Al 8.1139101536 14.1990496047 14.1989718156 
Al 12.1734693115 16.2269524566 0.0000121711 
Al 14.2232298281 1.9904852606 16.2233302386 
Al 14.2263535612 16.2205340662 1.9931893561 
Al 12.1697634835 2.0270360597 2.0272794812 
Al 12.1827076872 16.2267820616 4.0442548238 
Al 14.1917564844 2.0233286441 4.0591733877 
Al 14.1993348312 16.2271371395 6.0867010530 
Al 12.1697603084 2.0271561829 6.0852532241 
Al 12.1706810768 0.0001211816 8.1138302479 
Al 14.1978335554 2.0289749650 8.1151341405 
Al 14.1996750921 16.2277758564 10.1420971737 
Al 12.1706535596 2.0269921380 10.1438132954 
Al 12.1839269115 0.0002757013 12.1839269115 
Al 14.1998830588 2.0271154363 12.1718230412 
Al 14.2325412303 16.2259411990 14.2325412303 
Al 12.1718230412 2.0271154363 14.1998830588 
Al 12.1807830697 4.0444003475 16.2279822355 
Al 14.1905949404 6.0902306650 16.2242568279 
Al 14.1987495612 4.0549780708 2.0270768063 
Al 12.1680002650 6.0845113177 2.0273382199 
Al 12.1659094859 4.0594025214 4.0594141633 
Al 14.1919723887 6.0876816184 4.0605349606 
Al 14.1941023269 4.0571593392 6.0907011035 
Al 12.1702471515 6.0858750074 6.0867624375 
Al 12.1700915734 4.0567793900 8.1151219694 
Al 14.1981552952 6.0859427421 8.1152055794 
Al 14.1998788254 4.0570349826 10.1438593339 
Al 12.1710679053 6.0859422129 10.1422765648 
Al 12.1675091886 4.0592183677 12.1675091886 
Al 14.1997274807 6.0843843152 12.1697259119 
Al 14.1933508953 4.0557982954 14.1933508953 
Al 12.1697259119 6.0843843152 14.1997274807 
Al 12.1693300874 8.1151500158 16.2278658165 
Al 14.1989739323 10.1430190004 16.2279351387 
Al 14.1922814281 8.1206608673 2.0290982633 
Al 12.1698031718 10.1449986524 2.0272482597 
Al 12.1700391848 8.1150314801 4.0570095821 
Al 14.1997100178 10.1449526140 4.0571016589 
Al 14.1984892060 8.1147727125 6.0865502375 
Al 12.1714526171 10.1421405663 6.0856691574 
Al 12.1701159155 8.1139546045 8.1139392584 
Al 14.1995586731 10.1420299682 8.1138096100 
Al 14.1990691842 8.1142837527 10.1421130491 
Al 12.1711647447 10.1423786960 10.1421871339 
Al 12.1713552485 8.1138392439 12.1713552485 
Al 14.2008403404 10.1437360356 12.1710589093 
Al 14.1981849291 8.1148023464 14.1981849291 
Al 12.1710589093 10.1437360356 14.2008403404 
Al 12.1835273827 12.1838385389 16.2278076070 
Al 14.2338795195 14.2330645866 16.2274557042 
Al 14.2001746354 12.1727459262 2.0271567121 
Al 12.1716018451 14.1995285100 2.0272853022 
Al 12.1683992646 12.1686659700 4.0596644641 
Al 14.2001185426 14.2000629790 4.0549002817 
Al 14.2003529681 12.1710171043 6.0844631626 
Al 12.1711319358 14.2008408695 6.0840223580 
Al 12.1709980539 12.1711605113 8.1142223682 
Al 14.1989718156 14.1990496047 8.1139101536 
Al 14.2003413262 12.1709361402 10.1437820740 
Al 12.1708244838 14.2007212755 10.1438842052 
Al 12.1685564303 12.1686961331 12.1685564303 
Al 14.2009498800 14.2007392675 12.1726363866 
Al 14.2006334321 12.1727332260 14.2006334321 
Al 12.1726363866 14.2007392675 14.2009498800 

