&CONTROL
/
&SYSTEM
   ntyp             = 2
   nat              = 22
   ibrav            = 0
/
&ELECTRONS
/
&IONS
/
&CELL
/

ATOMIC_SPECIES
Mg 24.305 Mg_dummy.UPF
Si 28.085 Si_dummy.UPF

K_POINTS gamma

CELL_PARAMETERS angstrom
8.11399958457428 0.00000000000000 12.17099911227282
0.00000000000000 4.29745341876106 0.00000000000000
-6.08549982072501 0.00000000000000 2.02849976384927

ATOMIC_POSITIONS angstrom
Mg -6.0044129384 0.0000000000 2.0223962339 
Mg -1.5090070254 2.1487267094 1.6876847689 
Mg -4.3144161942 2.1487267094 3.6861500218 
Mg 2.4480547402 0.0000000000 4.4157742680 
Mg -0.3574105214 0.0000000000 6.4142728591 
Si -3.4755718885 0.0000000000 2.0582850323 
Si 0.1717661600 0.0000000000 2.8385758797 
Si -2.0167657884 0.0000000000 3.9116080891 
Si 0.1506027758 2.1487267094 4.1903056172 
Si -2.0379937322 2.1487267094 5.2632473373 
Si 1.6092585896 2.1487267094 6.0436392575 
Mg -1.9474134107 2.1487267094 8.1078949963 
Mg 2.5479925023 0.0000000000 7.7731835313 
Mg -0.2574166665 0.0000000000 9.7716493134 
Mg 6.5050547971 2.1487267094 10.5012746179 
Mg 3.6995895354 2.1487267094 12.4997732090 
Si 0.5814281683 2.1487267094 8.1437843239 
Si 4.2287662168 2.1487267094 8.9240751712 
Si 2.0402342685 2.1487267094 9.9971079098 
Si 4.2076028326 0.0000000000 10.2758049087 
Si 2.0190057955 0.0000000000 11.3487466288 
Si 5.6662581173 0.0000000000 12.1291385490 

