&CONTROL
/
&SYSTEM
   ntyp             = 2
   nat              = 255
   ibrav            = 0
/
&ELECTRONS
/
&IONS
/
&CELL
/

ATOMIC_SPECIES
Al 26.9815385 Al_dummy.UPF
Si 28.085 Si_dummy.UPF

K_POINTS gamma

CELL_PARAMETERS angstrom
16.22799863997135 0.00000000000000 0.00000000000000
0.00000000000000 16.22799863997135 0.00000000000000
0.00000000000000 0.00000000000000 16.22799863997135

ATOMIC_POSITIONS angstrom
Al 1.9968078699 0.0000000000 1.9968078699 
Al 1.9968078699 1.9968078699 0.0000000000 
Al 0.0000000000 1.9968078699 1.9968078699 
Al 0.0000000000 0.0000000000 4.0528142651 
Al 2.0290882089 2.0290882089 4.0602693137 
Al 2.0281108186 0.0000000000 6.0863830175 
Al 0.0000000000 2.0281108186 6.0863830175 
Al 0.0000000000 0.0000000000 8.1139995846 
Al 2.0284944721 2.0284944721 8.1139995846 
Al 2.0281108186 0.0000000000 10.1416156225 
Al 0.0000000000 2.0281108186 10.1416156225 
Al 0.0000000000 0.0000000000 12.1751843748 
Al 2.0290882089 2.0290882089 12.1677293263 
Al 1.9968078699 0.0000000000 14.2311907701 
Al 0.0000000000 1.9968078699 14.2311907701 
Al 0.0000000000 4.0528142651 0.0000000000 
Al 2.0281108186 6.0863830175 0.0000000000 
Al 2.0290882089 4.0602693137 2.0290882089 
Al 0.0000000000 6.0863830175 2.0281108186 
Al 0.0000000000 4.0506943812 4.0506943812 
Al 2.0279732325 6.0849690560 4.0572884585 
Al 2.0279732325 4.0572884585 6.0849690560 
Al 0.0000000000 6.0853982187 6.0853982187 
Al 0.0000000000 4.0576107274 8.1139995846 
Al 2.0294972629 6.0859776677 8.1139995846 
Al 2.0279732325 4.0572884585 10.1430301132 
Al 0.0000000000 6.0853982187 10.1426004213 
Al 0.0000000000 4.0506943812 12.1773042587 
Al 2.0279732325 6.0849690560 12.1707101815 
Al 2.0290882089 4.0602693137 14.1989109602 
Al 0.0000000000 6.0863830175 14.1998878214 
Al 0.0000000000 8.1139995846 0.0000000000 
Al 2.0281108186 10.1416156225 0.0000000000 
Al 2.0284944721 8.1139995846 2.0284944721 
Al 0.0000000000 10.1416156225 2.0281108186 
Al 0.0000000000 8.1139995846 4.0576107274 
Al 2.0279732325 10.1430301132 4.0572884585 
Al 2.0294972629 8.1139995846 6.0859776677 
Al 0.0000000000 10.1426004213 6.0853982187 
Al 0.0000000000 8.1139995846 8.1139995846 
Al 2.0294972629 10.1420215014 8.1139995846 
Al 2.0294972629 8.1139995846 10.1420215014 
Al 0.0000000000 10.1426004213 10.1426004213 
Al 0.0000000000 8.1139995846 12.1703879126 
Al 2.0279732325 10.1430301132 12.1707101815 
Al 2.0284944721 8.1139995846 14.1995046971 
Al 0.0000000000 10.1416156225 14.1998878214 
Al 0.0000000000 12.1751843748 0.0000000000 
Al 1.9968078699 14.2311907701 0.0000000000 
Al 2.0290882089 12.1677293263 2.0290882089 
Al 0.0000000000 14.2311907701 1.9968078699 
Al 0.0000000000 12.1773042587 4.0506943812 
Al 2.0290882089 14.1989109602 4.0602693137 
Al 2.0279732325 12.1707101815 6.0849690560 
Al 0.0000000000 14.1998878214 6.0863830175 
Al 0.0000000000 12.1703879126 8.1139995846 
Al 2.0284944721 14.1995046971 8.1139995846 
Al 2.0279732325 12.1707101815 10.1430301132 
Al 0.0000000000 14.1998878214 10.1416156225 
Al 0.0000000000 12.1773042587 12.1773042587 
Al 2.0290882089 14.1989109602 12.1677293263 
Al 2.0290882089 12.1677293263 14.1989109602 
Al 0.0000000000 14.2311907701 14.2311907701 
Al 4.0528142651 0.0000000000 0.0000000000 
Al 6.0863830175 2.0281108186 0.0000000000 
Al 6.0863830175 0.0000000000 2.0281108186 
Al 4.0602693137 2.0290882089 2.0290882089 
Al 4.0506943812 0.0000000000 4.0506943812 
Al 6.0849690560 2.0279732325 4.0572884585 
Al 6.0853982187 0.0000000000 6.0853982187 
Al 4.0572884585 2.0279732325 6.0849690560 
Al 4.0576107274 0.0000000000 8.1139995846 
Al 6.0859776677 2.0294972629 8.1139995846 
Al 6.0853982187 0.0000000000 10.1426004213 
Al 4.0572884585 2.0279732325 10.1430301132 
Al 4.0506943812 0.0000000000 12.1773042587 
Al 6.0849690560 2.0279732325 12.1707101815 
Al 6.0863830175 0.0000000000 14.1998878214 
Al 4.0602693137 2.0290882089 14.1989109602 
Al 4.0506943812 4.0506943812 0.0000000000 
Al 6.0853982187 6.0853982187 0.0000000000 
Al 6.0849690560 4.0572884585 2.0279732325 
Al 4.0572884585 6.0849690560 2.0279732325 
Al 4.0582864867 4.0582864867 4.0582864867 
Al 6.0855850183 6.0855850183 4.0580795784 
Al 6.0855850183 4.0580795784 6.0855850183 
Al 4.0580795784 6.0855850183 6.0855850183 
Al 4.0592548810 4.0592548810 8.1139995846 
Al 6.0976248582 6.0976248582 8.1139995846 
Al 6.0855850183 4.0580795784 10.1424136217 
Al 4.0580795784 6.0855850183 10.1424136217 
Al 4.0582864867 4.0582864867 12.1697121533 
Al 6.0855850183 6.0855850183 12.1699195908 
Al 6.0849690560 4.0572884585 14.2000254074 
Al 4.0572884585 6.0849690560 14.2000254074 
Al 4.0576107274 8.1139995846 0.0000000000 
Al 6.0853982187 10.1426004213 0.0000000000 
Al 6.0859776677 8.1139995846 2.0294972629 
Al 4.0572884585 10.1430301132 2.0279732325 
Al 4.0592548810 8.1139995846 4.0592548810 
Al 6.0855850183 10.1424136217 4.0580795784 
Al 6.0976248582 8.1139995846 6.0976248582 
Al 4.0580795784 10.1424136217 6.0855850183 
Al 4.0629834636 8.1139995846 8.1139995846 
Al 6.0976248582 10.1303743110 8.1139995846 
Al 6.0976248582 8.1139995846 10.1303743110 
Al 4.0580795784 10.1424136217 10.1424136217 
Al 4.0592548810 8.1139995846 12.1687437590 
Al 6.0855850183 10.1424136217 12.1699195908 
Al 6.0859776677 8.1139995846 14.1985013771 
Al 4.0572884585 10.1430301132 14.2000254074 
Al 4.0506943812 12.1773042587 0.0000000000 
Al 6.0863830175 14.1998878214 0.0000000000 
Al 6.0849690560 12.1707101815 2.0279732325 
Al 4.0602693137 14.1989109602 2.0290882089 
Al 4.0582864867 12.1697121533 4.0582864867 
Al 6.0849690560 14.2000254074 4.0572884585 
Al 6.0855850183 12.1699195908 6.0855850183 
Al 4.0572884585 14.2000254074 6.0849690560 
Al 4.0592548810 12.1687437590 8.1139995846 
Al 6.0859776677 14.1985013771 8.1139995846 
Al 6.0855850183 12.1699195908 10.1424136217 
Al 4.0572884585 14.2000254074 10.1430301132 
Al 4.0582864867 12.1697121533 12.1697121533 
Al 6.0849690560 14.2000254074 12.1707101815 
Al 6.0849690560 12.1707101815 14.2000254074 
Al 4.0602693137 14.1989109602 14.1989109602 
Al 8.1139995846 0.0000000000 0.0000000000 
Al 10.1416156225 2.0281108186 0.0000000000 
Al 10.1416156225 0.0000000000 2.0281108186 
Al 8.1139995846 2.0284944721 2.0284944721 
Al 8.1139995846 0.0000000000 4.0576107274 
Al 10.1430301132 2.0279732325 4.0572884585 
Al 10.1426004213 0.0000000000 6.0853982187 
Al 8.1139995846 2.0294972629 6.0859776677 
Al 8.1139995846 0.0000000000 8.1139995846 
Al 10.1420215014 2.0294972629 8.1139995846 
Al 10.1426004213 0.0000000000 10.1426004213 
Al 8.1139995846 2.0294972629 10.1420215014 
Al 8.1139995846 0.0000000000 12.1703879126 
Al 10.1430301132 2.0279732325 12.1707101815 
Al 10.1416156225 0.0000000000 14.1998878214 
Al 8.1139995846 2.0284944721 14.1995046971 
Al 8.1139995846 4.0576107274 0.0000000000 
Al 10.1426004213 6.0853982187 0.0000000000 
Al 10.1430301132 4.0572884585 2.0279732325 
Al 8.1139995846 6.0859776677 2.0294972629 
Al 8.1139995846 4.0592548810 4.0592548810 
Al 10.1424136217 6.0855850183 4.0580795784 
Al 10.1424136217 4.0580795784 6.0855850183 
Al 8.1139995846 6.0976248582 6.0976248582 
Al 8.1139995846 4.0629834636 8.1139995846 
Al 10.1303743110 6.0976248582 8.1139995846 
Al 10.1424136217 4.0580795784 10.1424136217 
Al 8.1139995846 6.0976248582 10.1303743110 
Al 8.1139995846 4.0592548810 12.1687437590 
Al 10.1424136217 6.0855850183 12.1699195908 
Al 10.1430301132 4.0572884585 14.2000254074 
Al 8.1139995846 6.0859776677 14.1985013771 
Al 8.1139995846 8.1139995846 0.0000000000 
Al 10.1426004213 10.1426004213 0.0000000000 
Al 10.1420215014 8.1139995846 2.0294972629 
Al 8.1139995846 10.1420215014 2.0294972629 
Al 8.1139995846 8.1139995846 4.0629834636 
Al 10.1424136217 10.1424136217 4.0580795784 
Al 10.1303743110 8.1139995846 6.0976248582 
Al 8.1139995846 10.1303743110 6.0976248582 
Si 8.1139995846 8.1139995846 8.1139995846 
Al 10.1303743110 10.1303743110 8.1139995846 
Al 10.1303743110 8.1139995846 10.1303743110 
Al 8.1139995846 10.1303743110 10.1303743110 
Al 8.1139995846 8.1139995846 12.1650157056 
Al 10.1424136217 10.1424136217 12.1699195908 
Al 10.1420215014 8.1139995846 14.1985013771 
Al 8.1139995846 10.1420215014 14.1985013771 
Al 8.1139995846 12.1703879126 0.0000000000 
Al 10.1416156225 14.1998878214 0.0000000000 
Al 10.1430301132 12.1707101815 2.0279732325 
Al 8.1139995846 14.1995046971 2.0284944721 
Al 8.1139995846 12.1687437590 4.0592548810 
Al 10.1430301132 14.2000254074 4.0572884585 
Al 10.1424136217 12.1699195908 6.0855850183 
Al 8.1139995846 14.1985013771 6.0859776677 
Al 8.1139995846 12.1650157056 8.1139995846 
Al 10.1420215014 14.1985013771 8.1139995846 
Al 10.1424136217 12.1699195908 10.1424136217 
Al 8.1139995846 14.1985013771 10.1420215014 
Al 8.1139995846 12.1687437590 12.1687437590 
Al 10.1430301132 14.2000254074 12.1707101815 
Al 10.1430301132 12.1707101815 14.2000254074 
Al 8.1139995846 14.1995046971 14.1995046971 
Al 12.1751843748 0.0000000000 0.0000000000 
Al 14.2311907701 1.9968078699 0.0000000000 
Al 14.2311907701 0.0000000000 1.9968078699 
Al 12.1677293263 2.0290882089 2.0290882089 
Al 12.1773042587 0.0000000000 4.0506943812 
Al 14.1989109602 2.0290882089 4.0602693137 
Al 14.1998878214 0.0000000000 6.0863830175 
Al 12.1707101815 2.0279732325 6.0849690560 
Al 12.1703879126 0.0000000000 8.1139995846 
Al 14.1995046971 2.0284944721 8.1139995846 
Al 14.1998878214 0.0000000000 10.1416156225 
Al 12.1707101815 2.0279732325 10.1430301132 
Al 12.1773042587 0.0000000000 12.1773042587 
Al 14.1989109602 2.0290882089 12.1677293263 
Al 14.2311907701 0.0000000000 14.2311907701 
Al 12.1677293263 2.0290882089 14.1989109602 
Al 12.1773042587 4.0506943812 0.0000000000 
Al 14.1998878214 6.0863830175 0.0000000000 
Al 14.1989109602 4.0602693137 2.0290882089 
Al 12.1707101815 6.0849690560 2.0279732325 
Al 12.1697121533 4.0582864867 4.0582864867 
Al 14.2000254074 6.0849690560 4.0572884585 
Al 14.2000254074 4.0572884585 6.0849690560 
Al 12.1699195908 6.0855850183 6.0855850183 
Al 12.1687437590 4.0592548810 8.1139995846 
Al 14.1985013771 6.0859776677 8.1139995846 
Al 14.2000254074 4.0572884585 10.1430301132 
Al 12.1699195908 6.0855850183 10.1424136217 
Al 12.1697121533 4.0582864867 12.1697121533 
Al 14.2000254074 6.0849690560 12.1707101815 
Al 14.1989109602 4.0602693137 14.1989109602 
Al 12.1707101815 6.0849690560 14.2000254074 
Al 12.1703879126 8.1139995846 0.0000000000 
Al 14.1998878214 10.1416156225 0.0000000000 
Al 14.1995046971 8.1139995846 2.0284944721 
Al 12.1707101815 10.1430301132 2.0279732325 
Al 12.1687437590 8.1139995846 4.0592548810 
Al 14.2000254074 10.1430301132 4.0572884585 
Al 14.1985013771 8.1139995846 6.0859776677 
Al 12.1699195908 10.1424136217 6.0855850183 
Al 12.1650157056 8.1139995846 8.1139995846 
Al 14.1985013771 10.1420215014 8.1139995846 
Al 14.1985013771 8.1139995846 10.1420215014 
Al 12.1699195908 10.1424136217 10.1424136217 
Al 12.1687437590 8.1139995846 12.1687437590 
Al 14.2000254074 10.1430301132 12.1707101815 
Al 14.1995046971 8.1139995846 14.1995046971 
Al 12.1707101815 10.1430301132 14.2000254074 
Al 12.1773042587 12.1773042587 0.0000000000 
Al 14.2311907701 14.2311907701 0.0000000000 
Al 14.1989109602 12.1677293263 2.0290882089 
Al 12.1677293263 14.1989109602 2.0290882089 
Al 12.1697121533 12.1697121533 4.0582864867 
Al 14.1989109602 14.1989109602 4.0602693137 
Al 14.2000254074 12.1707101815 6.0849690560 
Al 12.1707101815 14.2000254074 6.0849690560 
Al 12.1687437590 12.1687437590 8.1139995846 
Al 14.1995046971 14.1995046971 8.1139995846 
Al 14.2000254074 12.1707101815 10.1430301132 
Al 12.1707101815 14.2000254074 10.1430301132 
Al 12.1697121533 12.1697121533 12.1697121533 
Al 14.1989109602 14.1989109602 12.1677293263 
Al 14.1989109602 12.1677293263 14.1989109602 
Al 12.1677293263 14.1989109602 14.1989109602 

