&CONTROL
/
&SYSTEM
   ntyp             = 1
   nat              = 4
   ibrav            = 0
/
&ELECTRONS
/
&IONS
/
&CELL
/

ATOMIC_SPECIES
Al 26.9815385 Al_dummy.UPF

K_POINTS gamma

CELL_PARAMETERS angstrom
4.05703339504001 0.00405720167339 0.00000000000000
0.00405720167339 4.05703339504001 0.00000000000000
0.00000000000000 0.00000000000000 4.05703339504001

ATOMIC_POSITIONS angstrom
Al 4.0600719306 4.0600719306 0.0000000000 
Al 2.0295184300 2.0295184300 0.0000000000 
Al 2.0315536455 4.0580372442 2.0284997638 
Al 4.0580372442 2.0315536455 2.0284997638 

