&CONTROL
/
&SYSTEM
   ntyp             = 3
   nat              = 22
   ibrav            = 0
/
&ELECTRONS
/
&IONS
/
&CELL
/

ATOMIC_SPECIES
Al 26.9815385 Al_dummy.UPF
Mg 24.305 Mg_dummy.UPF
Si 28.085 Si_dummy.UPF

K_POINTS gamma

CELL_PARAMETERS angstrom
14.49965983185253 0.00412176129308 -4.31685675954080
0.01449945556945 4.12158666460227 -0.00431702768378
0.00000000000000 0.00000000000000 6.64555081728478

ATOMIC_POSITIONS angstrom
Al 0.0312791357 4.1211675563 6.5599622244 
Mg 1.0663132464 2.0594920855 1.9114759280 
Mg 2.2468827318 2.0598894976 5.3188183529 
Mg 5.0584001932 4.1224883826 -1.0003433694 
Mg 6.2389807913 4.1228868530 2.4070794904 
Si 0.8679606942 4.1208484624 4.0844066738 
Si 2.6610570343 0.0015192678 0.5779340112 
Al 3.1769212046 0.0009636317 3.0983346846 
Al 4.1138008803 2.0598312881 1.2244462139 
Si 4.6296052536 2.0592761812 3.7448310119 
Si 6.4372412667 2.0615310053 0.2341212274 
Al 7.2739551050 2.0612119115 4.4041297235 
Mg 8.3235146008 4.1213924566 -0.2481989287 
Mg 9.5041581711 4.1221084333 3.1585439384 
Mg 12.3007808815 2.0643912082 -3.1569246561 
Mg 13.4814376812 2.0651087725 0.2498965292 
Si 8.1106869352 2.0612150865 1.9285582975 
Si 9.9180774101 2.0640964564 -1.5824208382 
Al 10.4341273216 2.0638043506 0.9379327384 
Al 11.3707551090 4.1226989951 -0.9363266855 
Si 11.8867425776 4.1224068893 1.5840120741 
Si 13.6941759159 4.1252861425 -1.9268892726 

