&CONTROL
/
&SYSTEM
   ntyp             = 3
   nat              = 256
   ibrav            = 0
/
&ELECTRONS
/
&IONS
/
&CELL
/

ATOMIC_SPECIES
Mg 24.305 Mg_dummy.UPF
Al 26.9815385 Al_dummy.UPF
Si 28.085 Si_dummy.UPF

K_POINTS gamma

CELL_PARAMETERS angstrom
16.22799863997135 0.00000000000000 0.00000000000000
0.00000000000000 16.22799863997135 0.00000000000000
0.00000000000000 0.00000000000000 16.22799863997135

ATOMIC_POSITIONS angstrom
Mg 0.0000000000 0.0000000000 0.0000000000 
Al 2.0524741374 0.0000000000 2.0524741374 
Al 2.0524741374 2.0524741374 0.0000000000 
Al 0.0000000000 2.0524741374 2.0524741374 
Al 0.0000000000 0.0000000000 4.0595178820 
Al 2.0299449468 2.0299449468 4.0617176717 
Al 2.0282828012 0.0000000000 6.0868333473 
Al 0.0000000000 2.0282828012 6.0868333473 
Al 0.0000000000 0.0000000000 8.1139995846 
Al 2.0282780386 2.0282780386 8.1139995846 
Al 2.0282828012 0.0000000000 10.1411652927 
Al 0.0000000000 2.0282828012 10.1411652927 
Al 0.0000000000 0.0000000000 12.1684807579 
Al 2.0299449468 2.0299449468 12.1662814974 
Al 2.0524741374 0.0000000000 14.1755245026 
Al 0.0000000000 2.0524741374 14.1755245026 
Al 0.0000000000 4.0595178820 0.0000000000 
Al 2.0282828012 6.0868333473 0.0000000000 
Al 2.0299449468 4.0617176717 2.0299449468 
Al 0.0000000000 6.0868333473 2.0282828012 
Al 0.0000000000 4.0590887193 4.0590887193 
Al 2.0284627214 6.0856151814 4.0575033044 
Al 2.0284627214 4.0575033044 6.0856151814 
Al 0.0000000000 6.0854839454 6.0854839454 
Al 0.0000000000 4.0577345548 8.1139995846 
Al 2.0293586185 6.0856061853 8.1139995846 
Al 2.0284627214 4.0575033044 10.1423834586 
Al 0.0000000000 6.0854839454 10.1425146946 
Al 0.0000000000 4.0590887193 12.1689099206 
Al 2.0284627214 6.0856151814 12.1704953356 
Al 2.0299449468 4.0617176717 14.1980542223 
Al 0.0000000000 6.0868333473 14.1997158388 
Al 0.0000000000 8.1139995846 0.0000000000 
Al 2.0282828012 10.1411652927 0.0000000000 
Al 2.0282780386 8.1139995846 2.0282780386 
Al 0.0000000000 10.1411652927 2.0282828012 
Al 0.0000000000 8.1139995846 4.0577345548 
Al 2.0284627214 10.1423834586 4.0575033044 
Al 2.0293586185 8.1139995846 6.0856061853 
Al 0.0000000000 10.1425146946 6.0854839454 
Al 0.0000000000 8.1139995846 8.1139995846 
Al 2.0293586185 10.1423929838 8.1139995846 
Al 2.0293586185 8.1139995846 10.1423929838 
Al 0.0000000000 10.1425146946 10.1425146946 
Al 0.0000000000 8.1139995846 12.1702646143 
Al 2.0284627214 10.1423834586 12.1704953356 
Al 2.0282780386 8.1139995846 14.1997206014 
Al 0.0000000000 10.1411652927 14.1997158388 
Al 0.0000000000 12.1684807579 0.0000000000 
Al 2.0524741374 14.1755245026 0.0000000000 
Al 2.0299449468 12.1662814974 2.0299449468 
Al 0.0000000000 14.1755245026 2.0524741374 
Al 0.0000000000 12.1689099206 4.0590887193 
Al 2.0299449468 14.1980542223 4.0617176717 
Al 2.0284627214 12.1704953356 6.0856151814 
Al 0.0000000000 14.1997158388 6.0868333473 
Al 0.0000000000 12.1702646143 8.1139995846 
Al 2.0282780386 14.1997206014 8.1139995846 
Al 2.0284627214 12.1704953356 10.1423834586 
Al 0.0000000000 14.1997158388 10.1411652927 
Al 0.0000000000 12.1689099206 12.1689099206 
Al 2.0299449468 14.1980542223 12.1662814974 
Al 2.0299449468 12.1662814974 14.1980542223 
Al 0.0000000000 14.1755245026 14.1755245026 
Al 4.0595178820 0.0000000000 0.0000000000 
Al 6.0868333473 2.0282828012 0.0000000000 
Al 6.0868333473 0.0000000000 2.0282828012 
Al 4.0617176717 2.0299449468 2.0299449468 
Al 4.0590887193 0.0000000000 4.0590887193 
Al 6.0856151814 2.0284627214 4.0575033044 
Al 6.0854839454 0.0000000000 6.0854839454 
Al 4.0575033044 2.0284627214 6.0856151814 
Al 4.0577345548 0.0000000000 8.1139995846 
Al 6.0856061853 2.0293586185 8.1139995846 
Al 6.0854839454 0.0000000000 10.1425146946 
Al 4.0575033044 2.0284627214 10.1423834586 
Al 4.0590887193 0.0000000000 12.1689099206 
Al 6.0856151814 2.0284627214 12.1704953356 
Al 6.0868333473 0.0000000000 14.1997158388 
Al 4.0617176717 2.0299449468 14.1980542223 
Al 4.0590887193 4.0590887193 0.0000000000 
Al 6.0854839454 6.0854839454 0.0000000000 
Al 6.0856151814 4.0575033044 2.0284627214 
Al 4.0575033044 6.0856151814 2.0284627214 
Al 4.0564735256 4.0564735256 4.0564735256 
Al 6.0855278671 6.0855278671 4.0582060517 
Al 6.0855278671 4.0582060517 6.0855278671 
Al 4.0582060517 6.0855278671 6.0855278671 
Al 4.0591628041 4.0591628041 8.1139995846 
Al 6.0973507444 6.0973507444 8.1139995846 
Al 6.0855278671 4.0582060517 10.1424713020 
Al 4.0582060517 6.0855278671 10.1424713020 
Al 4.0564735256 4.0564735256 12.1715256436 
Al 6.0855278671 6.0855278671 12.1697925882 
Al 6.0856151814 4.0575033044 14.1995359185 
Al 4.0575033044 6.0856151814 14.1995359185 
Al 4.0577345548 8.1139995846 0.0000000000 
Al 6.0854839454 10.1425146946 0.0000000000 
Al 6.0856061853 8.1139995846 2.0293586185 
Al 4.0575033044 10.1423834586 2.0284627214 
Al 4.0591628041 8.1139995846 4.0591628041 
Al 6.0855278671 10.1424713020 4.0582060517 
Al 6.0973507444 8.1139995846 6.0973507444 
Al 4.0582060517 10.1424713020 6.0855278671 
Al 4.0623008250 8.1139995846 8.1139995846 
Al 6.0973507444 10.1306478956 8.1139995846 
Al 6.0973507444 8.1139995846 10.1306478956 
Al 4.0582060517 10.1424713020 10.1424713020 
Al 4.0591628041 8.1139995846 12.1688363650 
Al 6.0855278671 10.1424713020 12.1697925882 
Al 6.0856061853 8.1139995846 14.1986400215 
Al 4.0575033044 10.1423834586 14.1995359185 
Al 4.0590887193 12.1689099206 0.0000000000 
Al 6.0868333473 14.1997158388 0.0000000000 
Al 6.0856151814 12.1704953356 2.0284627214 
Al 4.0617176717 14.1980542223 2.0299449468 
Al 4.0564735256 12.1715256436 4.0564735256 
Al 6.0856151814 14.1995359185 4.0575033044 
Al 6.0855278671 12.1697925882 6.0855278671 
Al 4.0575033044 14.1995359185 6.0856151814 
Al 4.0591628041 12.1688363650 8.1139995846 
Al 6.0856061853 14.1986400215 8.1139995846 
Al 6.0855278671 12.1697925882 10.1424713020 
Al 4.0575033044 14.1995359185 10.1423834586 
Al 4.0564735256 12.1715256436 12.1715256436 
Al 6.0856151814 14.1995359185 12.1704953356 
Al 6.0856151814 12.1704953356 14.1995359185 
Al 4.0617176717 14.1980542223 14.1980542223 
Al 8.1139995846 0.0000000000 0.0000000000 
Al 10.1411652927 2.0282828012 0.0000000000 
Al 10.1411652927 0.0000000000 2.0282828012 
Al 8.1139995846 2.0282780386 2.0282780386 
Al 8.1139995846 0.0000000000 4.0577345548 
Al 10.1423834586 2.0284627214 4.0575033044 
Al 10.1425146946 0.0000000000 6.0854839454 
Al 8.1139995846 2.0293586185 6.0856061853 
Al 8.1139995846 0.0000000000 8.1139995846 
Al 10.1423929838 2.0293586185 8.1139995846 
Al 10.1425146946 0.0000000000 10.1425146946 
Al 8.1139995846 2.0293586185 10.1423929838 
Al 8.1139995846 0.0000000000 12.1702646143 
Al 10.1423834586 2.0284627214 12.1704953356 
Al 10.1411652927 0.0000000000 14.1997158388 
Al 8.1139995846 2.0282780386 14.1997206014 
Al 8.1139995846 4.0577345548 0.0000000000 
Al 10.1425146946 6.0854839454 0.0000000000 
Al 10.1423834586 4.0575033044 2.0284627214 
Al 8.1139995846 6.0856061853 2.0293586185 
Al 8.1139995846 4.0591628041 4.0591628041 
Al 10.1424713020 6.0855278671 4.0582060517 
Al 10.1424713020 4.0582060517 6.0855278671 
Al 8.1139995846 6.0973507444 6.0973507444 
Al 8.1139995846 4.0623008250 8.1139995846 
Al 10.1306478956 6.0973507444 8.1139995846 
Al 10.1424713020 4.0582060517 10.1424713020 
Al 8.1139995846 6.0973507444 10.1306478956 
Al 8.1139995846 4.0591628041 12.1688363650 
Al 10.1424713020 6.0855278671 12.1697925882 
Al 10.1423834586 4.0575033044 14.1995359185 
Al 8.1139995846 6.0856061853 14.1986400215 
Al 8.1139995846 8.1139995846 0.0000000000 
Al 10.1425146946 10.1425146946 0.0000000000 
Al 10.1423929838 8.1139995846 2.0293586185 
Al 8.1139995846 10.1423929838 2.0293586185 
Al 8.1139995846 8.1139995846 4.0623008250 
Al 10.1424713020 10.1424713020 4.0582060517 
Al 10.1306478956 8.1139995846 6.0973507444 
Al 8.1139995846 10.1306478956 6.0973507444 
Si 8.1139995846 8.1139995846 8.1139995846 
Al 10.1306478956 10.1306478956 8.1139995846 
Al 10.1306478956 8.1139995846 10.1306478956 
Al 8.1139995846 10.1306478956 10.1306478956 
Al 8.1139995846 8.1139995846 12.1656978150 
Al 10.1424713020 10.1424713020 12.1697925882 
Al 10.1423929838 8.1139995846 14.1986400215 
Al 8.1139995846 10.1423929838 14.1986400215 
Al 8.1139995846 12.1702646143 0.0000000000 
Al 10.1411652927 14.1997158388 0.0000000000 
Al 10.1423834586 12.1704953356 2.0284627214 
Al 8.1139995846 14.1997206014 2.0282780386 
Al 8.1139995846 12.1688363650 4.0591628041 
Al 10.1423834586 14.1995359185 4.0575033044 
Al 10.1424713020 12.1697925882 6.0855278671 
Al 8.1139995846 14.1986400215 6.0856061853 
Al 8.1139995846 12.1656978150 8.1139995846 
Al 10.1423929838 14.1986400215 8.1139995846 
Al 10.1424713020 12.1697925882 10.1424713020 
Al 8.1139995846 14.1986400215 10.1423929838 
Al 8.1139995846 12.1688363650 12.1688363650 
Al 10.1423834586 14.1995359185 12.1704953356 
Al 10.1423834586 12.1704953356 14.1995359185 
Al 8.1139995846 14.1997206014 14.1997206014 
Al 12.1684807579 0.0000000000 0.0000000000 
Al 14.1755245026 2.0524741374 0.0000000000 
Al 14.1755245026 0.0000000000 2.0524741374 
Al 12.1662814974 2.0299449468 2.0299449468 
Al 12.1689099206 0.0000000000 4.0590887193 
Al 14.1980542223 2.0299449468 4.0617176717 
Al 14.1997158388 0.0000000000 6.0868333473 
Al 12.1704953356 2.0284627214 6.0856151814 
Al 12.1702646143 0.0000000000 8.1139995846 
Al 14.1997206014 2.0282780386 8.1139995846 
Al 14.1997158388 0.0000000000 10.1411652927 
Al 12.1704953356 2.0284627214 10.1423834586 
Al 12.1689099206 0.0000000000 12.1689099206 
Al 14.1980542223 2.0299449468 12.1662814974 
Al 14.1755245026 0.0000000000 14.1755245026 
Al 12.1662814974 2.0299449468 14.1980542223 
Al 12.1689099206 4.0590887193 0.0000000000 
Al 14.1997158388 6.0868333473 0.0000000000 
Al 14.1980542223 4.0617176717 2.0299449468 
Al 12.1704953356 6.0856151814 2.0284627214 
Al 12.1715256436 4.0564735256 4.0564735256 
Al 14.1995359185 6.0856151814 4.0575033044 
Al 14.1995359185 4.0575033044 6.0856151814 
Al 12.1697925882 6.0855278671 6.0855278671 
Al 12.1688363650 4.0591628041 8.1139995846 
Al 14.1986400215 6.0856061853 8.1139995846 
Al 14.1995359185 4.0575033044 10.1423834586 
Al 12.1697925882 6.0855278671 10.1424713020 
Al 12.1715256436 4.0564735256 12.1715256436 
Al 14.1995359185 6.0856151814 12.1704953356 
Al 14.1980542223 4.0617176717 14.1980542223 
Al 12.1704953356 6.0856151814 14.1995359185 
Al 12.1702646143 8.1139995846 0.0000000000 
Al 14.1997158388 10.1411652927 0.0000000000 
Al 14.1997206014 8.1139995846 2.0282780386 
Al 12.1704953356 10.1423834586 2.0284627214 
Al 12.1688363650 8.1139995846 4.0591628041 
Al 14.1995359185 10.1423834586 4.0575033044 
Al 14.1986400215 8.1139995846 6.0856061853 
Al 12.1697925882 10.1424713020 6.0855278671 
Al 12.1656978150 8.1139995846 8.1139995846 
Al 14.1986400215 10.1423929838 8.1139995846 
Al 14.1986400215 8.1139995846 10.1423929838 
Al 12.1697925882 10.1424713020 10.1424713020 
Al 12.1688363650 8.1139995846 12.1688363650 
Al 14.1995359185 10.1423834586 12.1704953356 
Al 14.1997206014 8.1139995846 14.1997206014 
Al 12.1704953356 10.1423834586 14.1995359185 
Al 12.1689099206 12.1689099206 0.0000000000 
Al 14.1755245026 14.1755245026 0.0000000000 
Al 14.1980542223 12.1662814974 2.0299449468 
Al 12.1662814974 14.1980542223 2.0299449468 
Al 12.1715256436 12.1715256436 4.0564735256 
Al 14.1980542223 14.1980542223 4.0617176717 
Al 14.1995359185 12.1704953356 6.0856151814 
Al 12.1704953356 14.1995359185 6.0856151814 
Al 12.1688363650 12.1688363650 8.1139995846 
Al 14.1997206014 14.1997206014 8.1139995846 
Al 14.1995359185 12.1704953356 10.1423834586 
Al 12.1704953356 14.1995359185 10.1423834586 
Al 12.1715256436 12.1715256436 12.1715256436 
Al 14.1980542223 14.1980542223 12.1662814974 
Al 14.1980542223 12.1662814974 14.1980542223 
Al 12.1662814974 14.1980542223 14.1980542223 

