&CONTROL
/
&SYSTEM
   ntyp             = 1
   nat              = 254
   ibrav            = 0
/
&ELECTRONS
/
&IONS
/
&CELL
/

ATOMIC_SPECIES
Al 26.9815385 Al_dummy.UPF

K_POINTS gamma

CELL_PARAMETERS angstrom
16.22799863997135 0.00000000000000 0.00000000000000
0.00000000000000 16.22799863997135 0.00000000000000
0.00000000000000 0.00000000000000 16.22799863997135

ATOMIC_POSITIONS angstrom
Al 1.9957257025 0.0037492205 1.9957257025 
Al 2.0008153289 2.0284997638 0.0276844349 
Al 0.0276844349 2.0284997638 2.0008153289 
Al 0.0010789923 16.2274498832 4.0519776360 
Al 2.0286315290 2.0613812482 4.0252017983 
Al 2.0279822285 0.0098628049 6.0766519778 
Al 0.0001857412 2.0283886366 6.0878869391 
Al 0.0009091264 16.2277684479 8.1130899289 
Al 2.0289014094 2.0292078030 8.1152076961 
Al 2.0281399233 16.2275737107 10.1416775362 
Al 16.2275969945 2.0277922539 10.1412912369 
Al 0.0009705110 16.2278986255 12.1757368358 
Al 2.0283140226 2.0286108911 12.1686119939 
Al 1.9919198600 0.0112725329 14.2463432303 
Al 16.2278668748 1.9956188087 14.2312966055 
Al 0.0327740614 4.0532503072 0.0327740614 
Al 2.0278282380 6.0507683329 0.0351373668 
Al 0.0351373668 6.0507683329 2.0278282380 
Al 0.0365799039 4.0457269948 4.0101557027 
Al 2.0273837291 6.0499650419 4.0220494896 
Al 2.0275292528 4.0571000714 6.0807620972 
Al 0.0001386444 6.0848695707 6.0858924702 
Al 0.0003598405 4.0574249862 8.1148208676 
Al 2.0287643525 6.0855956018 8.1147018027 
Al 2.0275911666 4.0572302490 10.1434084749 
Al 16.2275615396 6.0853056127 10.1431094897 
Al 0.0005175353 4.0471372520 12.1798469552 
Al 2.0276557262 6.0845499476 12.1698153429 
Al 2.0274207715 4.0575482845 14.2045207679 
Al 0.0001524030 6.0866185013 14.1984701556 
Al 0.0003841827 8.1145123573 0.0003841827 
Al 2.0280790680 10.1424993484 0.0004206959 
Al 2.0287818153 8.1097799255 2.0287818153 
Al 0.0004206959 10.1424993484 2.0280790680 
Al 0.0002905183 8.1149214113 4.0568307202 
Al 2.0275551825 10.1442890257 4.0566926049 
Al 2.0287400103 8.1039214046 6.0759090130 
Al 0.0010117868 10.1421781379 6.0849674685 
Al 0.0009821529 8.1140149307 8.1130179608 
Al 2.0287521814 10.1414261770 8.1132280442 
Al 2.0286976761 8.1142530605 10.1421262785 
Al 16.2277462224 10.1435725198 10.1432703596 
Al 0.0008853135 8.1142832236 12.1714626715 
Al 2.0274879770 10.1428200298 12.1715314645 
Al 2.0289474478 8.1042574321 14.2090150699 
Al 0.0009445813 10.1407096711 14.1998063281 
Al 16.2277165885 12.1752182422 16.2277165885 
Al 1.9933623971 14.2342298348 0.0006715259 
Al 2.0281155812 12.1704863396 2.0281155812 
Al 0.0006715259 14.2342298348 1.9933623971 
Al 16.2275509561 12.1807412647 4.0474833339 
Al 2.0283473608 14.1983801955 4.0580287774 
Al 2.0276144504 12.1707149441 6.0850362615 
Al 0.0008440377 14.2004487492 6.0866830610 
Al 16.2278007277 12.1707456364 8.1143726545 
Al 2.0289368642 14.1996930842 8.1133894433 
Al 2.0275181401 12.1709832370 10.1434804430 
Al 16.2277345805 14.1994025659 10.1417971303 
Al 16.2277583935 12.1810767631 12.1805893909 
Al 2.0283611194 14.2001291262 12.1706064628 
Al 2.0282092456 12.1700767564 14.1996682128 
Al 0.0011160347 14.2350336550 14.2344494433 
Al 4.0519776360 16.2274498832 0.0010789923 
Al 6.0878869391 2.0283886366 0.0001857412 
Al 6.0766519778 0.0098628049 2.0279822285 
Al 4.0252017983 2.0613812482 2.0286315290 
Al 4.0476235659 16.2263645407 4.0476235659 
Al 6.0853601179 2.0280806555 4.0567883860 
Al 6.0871968920 16.2257046568 6.0871968920 
Al 4.0567883860 2.0280806555 6.0853601179 
Al 4.0563862113 16.2279155591 8.1129523429 
Al 6.0862083890 2.0296459617 8.1131439050 
Al 6.0848013068 16.2279155591 10.1431983915 
Al 4.0575885019 2.0271874044 10.1433714325 
Al 4.0459047983 16.2279446639 12.1822626492 
Al 6.0849304260 2.0284997638 12.1715679778 
Al 6.0883753697 16.2256866647 14.1977192532 
Al 4.0584632319 2.0284997638 14.1980357011 
Al 4.0101557027 4.0457269948 0.0365799039 
Al 6.0858924702 6.0848695707 0.0001386444 
Al 6.0807620972 4.0571000714 2.0275292528 
Al 4.0220494896 6.0499650419 2.0273837291 
Al 4.0233793120 4.0590929527 4.0233793120 
Al 6.0864862070 6.0853595888 4.0566301620 
Al 6.0756243156 4.0568201366 6.0756243156 
Al 4.0566301620 6.0853595888 6.0864862070 
Al 4.0566095241 4.0568995132 8.1147261449 
Al 6.0853892227 6.0842170952 8.1132201065 
Al 6.0859977765 4.0567174762 10.1424490766 
Al 4.0571895023 6.0860427565 10.1423009070 
Al 4.0587791507 4.0593115029 12.1681230341 
Al 6.0855490342 6.0845568269 12.1724368868 
Al 6.0742357546 4.0570540330 14.2105941347 
Al 4.0561861823 6.0836969140 14.2002185571 
Al 4.0568307202 8.1149214113 0.0002905183 
Al 6.0849674685 10.1421781379 0.0010117868 
Al 6.0759090130 8.1039214046 2.0287400103 
Al 4.0566926049 10.1442890257 2.0275551825 
Al 4.0566809630 8.1150933939 4.0566809630 
Al 6.0857866348 10.1414579277 4.0557363817 
Al 6.0876641555 8.1164793090 6.0876641555 
Al 4.0557363817 10.1414579277 6.0857866348 
Al 4.0568132573 8.1140318644 8.1130608242 
Al 6.0847600310 10.1428544263 8.1141435208 
Al 6.0853172546 8.1140921906 10.1426602183 
Al 4.0567714523 10.1428142089 10.1425723749 
Al 4.0562480961 8.1141440500 12.1718283330 
Al 6.0852775663 10.1424993484 12.1712213667 
Al 6.0882388420 8.1163644775 14.1968000723 
Al 4.0562226956 10.1424993484 14.2002757083 
Al 4.0474833339 12.1807412647 16.2275509561 
Al 6.0866830610 14.2004487492 0.0008440377 
Al 6.0850362615 12.1707149441 2.0276144504 
Al 4.0580287774 14.1983801955 2.0283473608 
Al 4.0597999335 12.1685193879 4.0597999335 
Al 6.0849838729 14.2011176292 4.0563232392 
Al 6.0855606761 12.1713626570 6.0855606761 
Al 4.0563232392 14.2011176292 6.0849838729 
Al 4.0571222968 12.1711012435 8.1144202805 
Al 6.0854453155 14.1992861469 8.1140461522 
Al 6.0865920425 12.1712351253 10.1423231324 
Al 4.0576091398 14.1999804274 10.1433529113 
Al 4.0596988606 12.1686336901 12.1682600910 
Al 6.0840615171 14.2004418699 12.1709493696 
Al 6.0846706000 12.1708541177 14.2002508369 
Al 4.0562803759 14.2013017829 14.2003127507 
Al 8.1130899289 16.2277684479 0.0009091264 
Al 10.1412912369 2.0277922539 16.2275969945 
Al 10.1416775362 16.2275737107 2.0281399233 
Al 8.1152076961 2.0292078030 2.0289014094 
Al 8.1129523429 16.2279155591 4.0563862113 
Al 10.1433714325 2.0271874044 4.0575885019 
Al 10.1431983915 16.2279155591 6.0848013068 
Al 8.1131439050 2.0296459617 6.0862083890 
Al 8.1141779173 0.0003450235 8.1141779173 
Al 10.1421130491 2.0284997638 8.1143853548 
Al 10.1431502364 16.2271715360 10.1431502364 
Al 8.1143853548 2.0284997638 10.1421130491 
Al 8.1140493272 0.0002820515 12.1705006273 
Al 10.1433544988 2.0273540952 12.1702900148 
Al 10.1417727881 0.0001005437 14.1998894089 
Al 8.1131269714 2.0298121233 14.1989104311 
Al 8.1148208676 4.0574249862 0.0003598405 
Al 10.1431094897 6.0853056127 16.2275615396 
Al 10.1434084749 4.0572302490 2.0275911666 
Al 8.1147018027 6.0855956018 2.0287643525 
Al 8.1147261449 4.0568995132 4.0566095241 
Al 10.1423009070 6.0860427565 4.0571895023 
Al 10.1424490766 4.0567174762 6.0859977765 
Al 8.1132201065 6.0842170952 6.0853892227 
Al 8.1133481674 4.0578271609 8.1133481674 
Al 10.1427073151 6.0855511509 8.1144160470 
Al 10.1423210157 4.0566545042 10.1423210157 
Al 8.1144160470 6.0855511509 10.1427073151 
Al 8.1133005415 4.0570831377 12.1716976262 
Al 10.1424522517 6.0857120208 12.1710530883 
Al 10.1435460609 4.0570826085 14.2001127217 
Al 8.1131454926 6.0850182695 14.1988892640 
Al 8.1130179608 8.1140149307 0.0009821529 
Al 10.1432703596 10.1435725198 16.2277462224 
Al 10.1421262785 8.1142530605 2.0286976761 
Al 8.1132280442 10.1414261770 2.0287521814 
Al 8.1130608242 8.1140318644 4.0568132573 
Al 10.1425723749 10.1428142089 4.0567714523 
Al 10.1426602183 8.1140921906 6.0853172546 
Al 8.1141435208 10.1428544263 6.0847600310 
Al 8.1139826509 8.1136005850 8.1139826509 
Al 10.1426649809 10.1424993484 8.1138334229 
Al 10.1428814144 8.1148282761 10.1428814144 
Al 8.1138334229 10.1424993484 10.1426649809 
Al 8.1141758006 8.1137635715 12.1699068905 
Al 10.1423554122 10.1421442705 12.1717383728 
Al 10.1420781234 8.1138974534 14.1993766362 
Al 8.1139260289 10.1421844880 14.1997274807 
Al 8.1143726545 12.1707456364 16.2278007277 
Al 10.1417971303 14.1994025659 16.2277345805 
Al 10.1434804430 12.1709832370 2.0275181401 
Al 8.1133894433 14.1996930842 2.0289368642 
Al 8.1144202805 12.1711012435 4.0571222968 
Al 10.1433529113 14.1999804274 4.0576091398 
Al 10.1423231324 12.1712351253 6.0865920425 
Al 8.1140461522 14.1992861469 6.0854453155 
Al 8.1136169895 12.1701698916 8.1136169895 
Al 10.1420823568 14.1994470168 8.1137910888 
Al 10.1425162821 12.1713975827 10.1425162821 
Al 8.1137910888 14.1994470168 10.1420823568 
Al 8.1138387147 12.1709065063 12.1711816784 
Al 10.1432782973 14.2007810725 12.1711091811 
Al 10.1434375796 12.1709663033 14.1996851465 
Al 8.1141974969 14.1989559403 14.1993094307 
Al 12.1757368358 16.2278986255 0.0009705110 
Al 14.2312966055 1.9956188087 16.2278668748 
Al 14.2463432303 0.0112725329 1.9919198600 
Al 12.1686119939 2.0286108911 2.0283140226 
Al 12.1822626492 16.2279446639 4.0459047983 
Al 14.1980357011 2.0284997638 4.0584632319 
Al 14.1977192532 16.2256866647 6.0883753697 
Al 12.1715679778 2.0284997638 6.0849304260 
Al 12.1705006273 0.0002820515 8.1140493272 
Al 14.1989104311 2.0298121233 8.1131269714 
Al 14.1998894089 0.0001005437 10.1417727881 
Al 12.1702900148 2.0273540952 10.1433544988 
Al 12.1808740882 0.0001799203 12.1808740882 
Al 14.1997105470 2.0289194014 12.1711388151 
Al 14.2331190918 16.2259057441 14.2331190918 
Al 12.1711388151 2.0289194014 14.1997105470 
Al 12.1798469552 4.0471372520 0.0005175353 
Al 14.1984701556 6.0866185013 0.0001524030 
Al 14.2045207679 4.0575482845 2.0274207715 
Al 12.1698153429 6.0845499476 2.0276557262 
Al 12.1681230341 4.0593115029 4.0587791507 
Al 14.2002185571 6.0836969140 4.0561861823 
Al 14.2105941347 4.0570540330 6.0742357546 
Al 12.1724368868 6.0845568269 6.0855490342 
Al 12.1716976262 4.0570831377 8.1133005415 
Al 14.1988892640 6.0850182695 8.1131454926 
Al 14.2001127217 4.0570826085 10.1435460609 
Al 12.1710530883 6.0857120208 10.1424522517 
Al 12.1693020410 4.0592935109 12.1693020410 
Al 14.2001751646 6.0838805385 12.1715145309 
Al 14.2088748379 4.0586341561 14.2088748379 
Al 12.1715145309 6.0838805385 14.2001751646 
Al 12.1714626715 8.1142832236 0.0008853135 
Al 14.1998063281 10.1407096711 0.0009445813 
Al 14.2090150699 8.1042574321 2.0289474478 
Al 12.1715314645 10.1428200298 2.0274879770 
Al 12.1718283330 8.1141440500 4.0562480961 
Al 14.2002757083 10.1424993484 4.0562226956 
Al 14.1968000723 8.1163644775 6.0882388420 
Al 12.1712213667 10.1424993484 6.0852775663 
Al 12.1699068905 8.1137635715 8.1141758006 
Al 14.1997274807 10.1421844880 8.1139260289 
Al 14.1993766362 8.1138974534 10.1420781234 
Al 12.1717383728 10.1421442705 10.1423554122 
Al 12.1709377277 8.1136355107 12.1709377277 
Al 14.2007620221 10.1435402400 12.1707122982 
Al 14.1966989995 8.1164793090 14.1966989995 
Al 12.1707122982 10.1435402400 14.2007620221 
Al 12.1805893909 12.1810767631 16.2277583935 
Al 14.2344494433 14.2350336550 0.0011160347 
Al 14.1996682128 12.1700767564 2.0282092456 
Al 12.1706064628 14.2001291262 2.0283611194 
Al 12.1682600910 12.1686336901 4.0596988606 
Al 14.2003127507 14.2013017829 4.0562803759 
Al 14.2002508369 12.1708541177 6.0846706000 
Al 12.1709493696 14.2004418699 6.0840615171 
Al 12.1711816784 12.1709065063 8.1138387147 
Al 14.1993094307 14.1989559403 8.1141974969 
Al 14.1996851465 12.1709663033 10.1434375796 
Al 12.1711091811 14.2007810725 10.1432782973 
Al 12.1688347775 12.1685193879 12.1688347775 
Al 14.1998682418 14.1996391081 12.1700127260 
Al 14.1998179700 12.1699047738 14.1998179700 
Al 12.1700127260 14.1996391081 14.1998682418 

