&CONTROL
/
&SYSTEM
   ntyp             = 3
   nat              = 256
   ibrav            = 0
/
&ELECTRONS
/
&IONS
/
&CELL
/

ATOMIC_SPECIES
Mg 24.305 Mg_dummy.UPF
Al 26.9815385 Al_dummy.UPF
Si 28.085 Si_dummy.UPF

K_POINTS gamma

CELL_PARAMETERS angstrom
16.22799863997135 0.00000000000000 0.00000000000000
0.00000000000000 16.22799863997135 0.00000000000000
0.00000000000000 0.00000000000000 16.22799863997135

ATOMIC_POSITIONS angstrom
Mg 0.0000000000 0.0006323668 0.0000000000 
Al 2.0515766528 0.0010197245 2.0515766528 
Al 2.0382487956 2.0628010306 0.0000000000 
Al 0.0000000000 2.0628010306 2.0382487956 
Al 0.0000000000 0.0021108879 4.0573128006 
Al 2.0297597348 2.0300227359 4.0602560843 
Al 2.0283023807 0.0002190794 6.0867026405 
Al 0.0000000000 2.0285473898 6.0860591610 
Al 0.0000000000 0.0003011018 8.1139995846 
Al 2.0285685569 2.0283473608 8.1139995846 
Al 2.0283023807 0.0002190794 10.1412959994 
Al 0.0000000000 2.0285473898 10.1419394789 
Al 0.0000000000 0.0021108879 12.1706863685 
Al 2.0297597348 2.0300227359 12.1677425557 
Al 2.0515766528 0.0010197245 14.1764219871 
Al 0.0000000000 2.0628010306 14.1897503735 
Si 0.0000000000 4.0682551270 0.0000000000 
Al 2.0167075789 6.0750242287 0.0000000000 
Al 2.0191238020 4.0617113216 2.0191238020 
Al 0.0000000000 6.0750242287 2.0167075789 
Al 0.0000000000 4.0588093138 4.0538202310 
Al 2.0281674406 6.0853336591 4.0559263563 
Al 2.0282859763 4.0572641163 6.0846743043 
Al 0.0000000000 6.0855442716 6.0848944420 
Al 0.0000000000 4.0574233986 8.1139995846 
Al 2.0287130223 6.0856342317 8.1139995846 
Al 2.0282859763 4.0572641163 10.1433243357 
Al 0.0000000000 6.0855442716 10.1431047272 
Al 0.0000000000 4.0588093138 12.1741784090 
Al 2.0281674406 6.0853336591 12.1720728128 
Al 2.0191238020 4.0617113216 14.2088748379 
Al 0.0000000000 6.0750242287 14.2112910611 
Al 0.0000000000 8.1096322851 0.0000000000 
Al 2.0284320292 10.1403418929 0.0000000000 
Al 2.0282701009 8.1123892983 2.0282701009 
Al 0.0000000000 10.1403418929 2.0284320292 
Al 0.0000000000 8.1121305307 4.0555855662 
Al 2.0283087309 10.1425004068 4.0570683207 
Al 2.0284352042 8.1137741551 6.0854558990 
Al 0.0000000000 10.1425390367 6.0856829160 
Al 0.0000000000 8.1136360398 8.1139995846 
Al 2.0285712028 10.1426480472 8.1139995846 
Al 2.0284352042 8.1137741551 10.1425427410 
Al 0.0000000000 10.1425390367 10.1423157239 
Al 0.0000000000 8.1121305307 12.1724130738 
Al 2.0283087309 10.1425004068 12.1709303192 
Al 2.0282701009 8.1123892983 14.1997285390 
Al 0.0000000000 10.1403418929 14.1995671400 
Al 0.0000000000 12.1681161548 0.0000000000 
Al 2.0514051994 14.1771305554 0.0000000000 
Al 2.0300259109 12.1665026935 2.0300259109 
Al 0.0000000000 14.1771305554 2.0514051994 
Al 0.0000000000 12.1690109935 4.0587352289 
Al 2.0297734934 14.1981362448 4.0613710606 
Al 2.0283912825 12.1707218234 6.0856151814 
Al 0.0000000000 14.1993300686 6.0869682875 
Al 0.0000000000 12.1706482678 8.1139995846 
Al 2.0284828302 14.1993824571 8.1139995846 
Al 2.0283912825 12.1707218234 10.1423834586 
Al 0.0000000000 14.1993300686 10.1410303525 
Al 0.0000000000 12.1690109935 12.1692634110 
Al 2.0297734934 14.1981362448 12.1666275793 
Al 2.0300259109 12.1665026935 14.1979732582 
Al 0.0000000000 14.1771305554 14.1765939697 
Al 4.0573128006 0.0021108879 0.0000000000 
Al 6.0860591610 2.0285473898 0.0000000000 
Al 6.0867026405 0.0002190794 2.0283023807 
Al 4.0602560843 2.0300227359 2.0297597348 
Al 4.0596856312 16.2272969510 4.0596856312 
Al 6.0853828726 2.0285473898 4.0570212240 
Al 6.0856458736 0.0000201087 6.0856458736 
Al 4.0570212240 2.0285473898 6.0853828726 
Al 4.0573524889 0.0000386299 8.1139995846 
Al 6.0856966746 2.0285637943 8.1139995846 
Al 6.0856458736 0.0000201087 10.1423527663 
Al 4.0570212240 2.0285473898 10.1426162966 
Al 4.0596856312 16.2272969510 12.1683135379 
Al 6.0853828726 2.0285473898 12.1709774160 
Al 6.0867026405 0.0002190794 14.1996962592 
Al 4.0602560843 2.0300227359 14.1982394344 
Al 4.0538202310 4.0588093138 0.0000000000 
Al 6.0848944420 6.0855442716 0.0000000000 
Al 6.0846743043 4.0572641163 2.0282859763 
Al 4.0559263563 6.0853336591 2.0281674406 
Al 4.0552373676 4.0571540474 4.0552373676 
Al 6.0853193713 6.0852347029 4.0566063490 
Al 6.0855733764 4.0568413037 6.0855733764 
Al 4.0566063490 6.0852347029 6.0853193713 
Al 4.0568100823 4.0571461098 8.1139995846 
Al 6.0857898098 6.0856469320 8.1139995846 
Al 6.0855733764 4.0568413037 10.1424257928 
Al 4.0566063490 6.0852347029 10.1426792687 
Al 4.0552373676 4.0571540474 12.1727618016 
Al 6.0853193713 6.0852347029 12.1713922909 
Al 6.0846743043 4.0572641163 14.1997126637 
Al 4.0559263563 6.0853336591 14.1998311994 
Al 4.0555855662 8.1121305307 0.0000000000 
Al 6.0856829160 10.1425390367 0.0000000000 
Al 6.0854558990 8.1137741551 2.0284352042 
Al 4.0570683207 10.1425004068 2.0283087309 
Al 4.0576922207 8.1145700376 4.0576922207 
Al 6.0854823579 10.1426427554 4.0568973965 
Al 6.0856527529 8.1139958803 6.0856527529 
Al 4.0568973965 10.1426427554 6.0854823579 
Al 4.0572117278 8.1139979970 8.1139995846 
Al 6.0854527240 10.1421839588 8.1139995846 
Al 6.0856527529 8.1139958803 10.1423464162 
Al 4.0568973965 10.1426427554 10.1425162821 
Al 4.0576922207 8.1145700376 12.1703064193 
Al 6.0854823579 10.1426427554 12.1711012435 
Al 6.0854558990 8.1137741551 14.1995639649 
Al 4.0570683207 10.1425004068 14.1996904383 
Al 4.0587352289 12.1690109935 0.0000000000 
Al 6.0869682875 14.1993300686 0.0000000000 
Al 6.0856151814 12.1707218234 2.0283912825 
Al 4.0613710606 14.1981362448 2.0297734934 
Al 4.0570572080 12.1709012145 4.0570572080 
Al 6.0855305130 14.1995523230 4.0572731123 
Al 6.0851955438 12.1711430485 6.0851955438 
Al 4.0572731123 14.1995523230 6.0855305130 
Al 4.0571556350 12.1708303047 8.1139995846 
Al 6.0852960875 14.1996131784 8.1139995846 
Al 6.0851955438 12.1711430485 10.1428036253 
Al 4.0572731123 14.1995523230 10.1424686561 
Al 4.0570572080 12.1709012145 12.1709414320 
Al 6.0855305130 14.1995523230 12.1707255277 
Al 6.0856151814 12.1707218234 14.1996073575 
Al 4.0613710606 14.1981362448 14.1982256758 
Al 8.1139995846 0.0003011018 0.0000000000 
Al 10.1419394789 2.0285473898 0.0000000000 
Al 10.1412959994 0.0002190794 2.0283023807 
Al 8.1139995846 2.0283473608 2.0285685569 
Al 8.1139995846 0.0000386299 4.0573524889 
Al 10.1426162966 2.0285473898 4.0570212240 
Al 10.1423527663 0.0000201087 6.0856458736 
Al 8.1139995846 2.0285637943 6.0856966746 
Al 8.1139995846 16.2279684769 8.1139995846 
Al 10.1423019653 2.0285637943 8.1139995846 
Al 10.1423527663 0.0000201087 10.1423527663 
Al 8.1139995846 2.0285637943 10.1423019653 
Al 8.1139995846 0.0000386299 12.1706461511 
Al 10.1426162966 2.0285473898 12.1709774160 
Al 10.1412959994 0.0002190794 14.1996962592 
Al 8.1139995846 2.0283473608 14.1994300831 
Al 8.1139995846 4.0574233986 0.0000000000 
Al 10.1431047272 6.0855442716 0.0000000000 
Al 10.1433243357 4.0572641163 2.0282859763 
Al 8.1139995846 6.0856342317 2.0287130223 
Al 8.1139995846 4.0571461098 4.0568100823 
Al 10.1426792687 6.0852347029 4.0566063490 
Al 10.1424257928 4.0568413037 6.0855733764 
Al 8.1139995846 6.0856469320 6.0857898098 
Al 8.1139995846 4.0572260155 8.1139995846 
Al 10.1422093593 6.0856469320 8.1139995846 
Al 10.1424257928 4.0568413037 10.1424257928 
Al 8.1139995846 6.0856469320 10.1422093593 
Al 8.1139995846 4.0571461098 12.1711890869 
Al 10.1426792687 6.0852347029 12.1713922909 
Al 10.1433243357 4.0572641163 14.1997126637 
Al 8.1139995846 6.0856342317 14.1992861469 
Al 8.1139995846 8.1136360398 0.0000000000 
Al 10.1423157239 10.1425390367 0.0000000000 
Al 10.1425427410 8.1137741551 2.0284352042 
Al 8.1139995846 10.1426480472 2.0285712028 
Al 8.1139995846 8.1139979970 4.0572117278 
Al 10.1425162821 10.1426427554 4.0568973965 
Al 10.1423464162 8.1139958803 6.0856527529 
Al 8.1139995846 10.1421839588 6.0854527240 
Al 8.1139995846 8.1140318644 8.1139995846 
Al 10.1425459160 10.1421839588 8.1139995846 
Al 10.1423464162 8.1139958803 10.1423464162 
Al 8.1139995846 10.1421839588 10.1425459160 
Al 8.1139995846 8.1139979970 12.1707869122 
Al 10.1425162821 10.1426427554 12.1711012435 
Al 10.1425427410 8.1137741551 14.1995639649 
Al 8.1139995846 10.1426480472 14.1994274372 
Al 8.1139995846 12.1706482678 0.0000000000 
Al 10.1410303525 14.1993300686 0.0000000000 
Al 10.1423834586 12.1707218234 2.0283912825 
Al 8.1139995846 14.1993824571 2.0284828302 
Al 8.1139995846 12.1708303047 4.0571556350 
Al 10.1424686561 14.1995523230 4.0572731123 
Al 10.1428036253 12.1711430485 6.0851955438 
Al 8.1139995846 14.1996131784 6.0852960875 
Al 8.1139995846 12.1707943207 8.1139995846 
Al 10.1427025525 14.1996131784 8.1139995846 
Al 10.1428036253 12.1711430485 10.1428036253 
Al 8.1139995846 14.1996131784 10.1427025525 
Al 8.1139995846 12.1708303047 12.1708430050 
Al 10.1424686561 14.1995523230 12.1707255277 
Al 10.1423834586 12.1707218234 14.1996073575 
Al 8.1139995846 14.1993824571 14.1995158098 
Al 12.1706863685 0.0021108879 0.0000000000 
Al 14.1897503735 2.0628010306 0.0000000000 
Al 14.1764219871 0.0010197245 2.0515766528 
Al 12.1677425557 2.0300227359 2.0297597348 
Al 12.1683135379 16.2272969510 4.0596856312 
Al 14.1982394344 2.0300227359 4.0602560843 
Al 14.1996962592 0.0002190794 6.0867026405 
Al 12.1709774160 2.0285473898 6.0853828726 
Al 12.1706461511 0.0000386299 8.1139995846 
Al 14.1994300831 2.0283473608 8.1139995846 
Al 14.1996962592 0.0002190794 10.1412959994 
Al 12.1709774160 2.0285473898 10.1426162966 
Al 12.1683135379 16.2272969510 12.1683135379 
Al 14.1982394344 2.0300227359 12.1677425557 
Al 14.1764219871 0.0010197245 14.1764219871 
Al 12.1677425557 2.0300227359 14.1982394344 
Al 12.1741784090 4.0588093138 0.0000000000 
Al 14.2112910611 6.0750242287 0.0000000000 
Al 14.2088748379 4.0617113216 2.0191238020 
Al 12.1720728128 6.0853336591 2.0281674406 
Al 12.1727618016 4.0571540474 4.0552373676 
Al 14.1998311994 6.0853336591 4.0559263563 
Al 14.1997126637 4.0572641163 6.0846743043 
Al 12.1713922909 6.0852347029 6.0853193713 
Al 12.1711890869 4.0571461098 8.1139995846 
Al 14.1992861469 6.0856342317 8.1139995846 
Al 14.1997126637 4.0572641163 10.1433243357 
Al 12.1713922909 6.0852347029 10.1426792687 
Al 12.1727618016 4.0571540474 12.1727618016 
Al 14.1998311994 6.0853336591 12.1720728128 
Al 14.2088748379 4.0617113216 14.2088748379 
Al 12.1720728128 6.0853336591 14.1998311994 
Al 12.1724130738 8.1121305307 0.0000000000 
Al 14.1995671400 10.1403418929 0.0000000000 
Al 14.1997285390 8.1123892983 2.0282701009 
Al 12.1709303192 10.1425004068 2.0283087309 
Al 12.1703064193 8.1145700376 4.0576922207 
Al 14.1996904383 10.1425004068 4.0570683207 
Al 14.1995639649 8.1137741551 6.0854558990 
Al 12.1711012435 10.1426427554 6.0854823579 
Al 12.1707869122 8.1139979970 8.1139995846 
Al 14.1994274372 10.1426480472 8.1139995846 
Al 14.1995639649 8.1137741551 10.1425427410 
Al 12.1711012435 10.1426427554 10.1425162821 
Al 12.1703064193 8.1145700376 12.1703064193 
Al 14.1996904383 10.1425004068 12.1709303192 
Al 14.1997285390 8.1123892983 14.1997285390 
Al 12.1709303192 10.1425004068 14.1996904383 
Al 12.1692634110 12.1690109935 0.0000000000 
Al 14.1765939697 14.1771305554 0.0000000000 
Al 14.1979732582 12.1665026935 2.0300259109 
Al 12.1666275793 14.1981362448 2.0297734934 
Al 12.1709414320 12.1709012145 4.0570572080 
Al 14.1982256758 14.1981362448 4.0613710606 
Al 14.1996073575 12.1707218234 6.0856151814 
Al 12.1707255277 14.1995523230 6.0855305130 
Al 12.1708430050 12.1708303047 8.1139995846 
Al 14.1995158098 14.1993824571 8.1139995846 
Al 14.1996073575 12.1707218234 10.1423834586 
Al 12.1707255277 14.1995523230 10.1424686561 
Al 12.1709414320 12.1709012145 12.1709414320 
Al 14.1982256758 14.1981362448 12.1666275793 
Al 14.1979732582 12.1665026935 14.1979732582 
Al 12.1666275793 14.1981362448 14.1982256758 

