&CONTROL
/
&SYSTEM
   ntyp             = 2
   nat              = 256
   ibrav            = 0
/
&ELECTRONS
/
&IONS
/
&CELL
/

ATOMIC_SPECIES
Mg 24.305 Mg_dummy.UPF
Al 26.9815385 Al_dummy.UPF

K_POINTS gamma

CELL_PARAMETERS angstrom
16.22799863997135 0.00000000000000 0.00000000000000
0.00000000000000 16.22799863997135 0.00000000000000
0.00000000000000 0.00000000000000 16.22799863997135

ATOMIC_POSITIONS angstrom
Mg 16.2232815543 16.2190872957 16.2232815543 
Al 2.0527741809 16.2253014237 2.0527741809 
Al 2.0580749490 2.0284939429 16.1984218673 
Al 16.1984218673 2.0284939429 2.0580749490 
Al 16.2240737326 16.2178648964 4.0645614700 
Al 2.0318542182 2.0076792865 4.0910219181 
Al 2.0285823155 16.2205875131 6.0958632272 
Al 16.2238403655 2.0246494705 6.0983540643 
Al 16.2278774584 16.2268524421 8.1153362862 
Al 2.0289268099 2.0287712318 8.1169539809 
Al 2.0286611629 16.2271011554 10.1395211391 
Al 16.2275742398 2.0282314710 10.1395438937 
Al 0.0000486843 16.2269709778 12.1672229037 
Al 2.0326601551 2.0323532323 12.1581453978 
Al 2.0529869101 16.2214013877 14.1687261630 
Al 16.2246494774 2.0493244746 14.1654791316 
Al 16.2037205187 4.0596978023 16.2037205187 
Al 2.0286934427 6.1137277207 16.2027526536 
Mg 2.0331544066 4.0659166929 2.0331544066 
Al 16.2027526536 6.1137277207 2.0286934427 
Al 16.2035146688 4.0635988967 4.0877748867 
Al 2.0285971325 6.1125566515 4.0837007514 
Al 2.0284537254 4.0580287774 6.0892755001 
Al 16.2237154796 6.0908868447 6.0966273591 
Al 16.2278393576 4.0578991290 8.1169772647 
Al 2.0287511230 6.0859575590 8.1170169530 
Al 2.0286225330 4.0581478422 10.1411615884 
Al 16.2275461935 6.0871953045 10.1412605446 
Al 16.2279187342 4.0644111837 12.1606357058 
Al 2.0286526961 6.0870735937 12.1667588153 
Al 2.0324273171 4.0671343296 14.1919374630 
Al 16.2238705286 6.0926246627 14.1896392463 
Al 16.2238784662 8.1238078842 16.2238784662 
Al 2.0286299414 10.1424988192 16.2278700499 
Al 2.0289019385 8.1168952423 2.0289019385 
Al 16.2278700499 10.1424988192 2.0286299414 
Al 16.2238160233 8.1240010339 4.0619960189 
Al 2.0285780821 10.1443461769 4.0582399191 
Al 2.0287294268 8.1214916755 6.0933147098 
Al 16.2278832793 10.1424898232 6.0879239815 
Al 16.2279150300 8.1150616432 8.1152129879 
Al 2.0287310143 10.1434693303 8.1152357425 
Al 2.0287310143 8.1148309220 10.1421924256 
Al 16.2277684479 10.1415267207 10.1412616029 
Al 16.2278859252 8.1151394323 12.1688072603 
Al 2.0286161828 10.1425062277 12.1685744223 
Al 2.0289194014 8.1214265867 14.1916522364 
Al 16.2279219093 10.1406509324 14.1982595431 
Al 16.2275985820 12.1681023962 16.2275985820 
Al 2.0537478669 14.1712709762 16.2278091945 
Al 2.0326220543 12.1611892251 2.0326220543 
Al 16.2278091945 14.1712709762 2.0537478669 
Al 16.2275811192 12.1635694642 4.0648482841 
Al 2.0326310503 14.1923729758 4.0668612742 
Al 2.0286145953 12.1698582062 6.0876906144 
Al 16.2278472953 14.1979251031 6.0897395885 
Al 16.2277684479 12.1701661873 8.1143054490 
Al 2.0289543271 14.1978033923 8.1152368009 
Al 2.0285844322 12.1699354661 10.1412843575 
Al 16.2277483392 14.1990406087 10.1394809216 
Al 16.2277700354 12.1635064921 12.1631842232 
Al 2.0327839825 14.1941123813 12.1598726322 
Al 2.0326834389 12.1609960755 14.1945039724 
Al 16.2279055048 14.1724346369 14.1727934190 
Al 4.0645614700 16.2178648964 16.2240737326 
Al 6.0983540643 2.0246494705 16.2238403655 
Al 6.0958632272 16.2205875131 2.0285823155 
Al 4.0910219181 2.0076792865 2.0318542182 
Al 4.0683498497 16.2183374516 4.0683498497 
Al 6.0964352678 2.0243869986 4.0622071606 
Al 6.0874900562 16.2272641420 6.0874900562 
Al 4.0622071606 2.0243869986 6.0964352678 
Al 4.0580208397 16.2268487379 8.1152463261 
Al 6.0869074321 2.0286399958 8.1152696099 
Al 6.0870238511 16.2276954214 10.1412414942 
Al 4.0585738299 2.0281875493 10.1412219146 
Al 4.0644598680 16.2267259688 12.1624274998 
Al 6.0880541591 2.0285008222 12.1684442447 
Al 6.0892971964 16.2271699485 14.1986225587 
Al 4.0720577944 2.0285013514 14.1844421969 
Al 4.0877748867 4.0635988967 16.2035146688 
Al 6.0966273591 6.0908868447 16.2237154796 
Al 6.0892755001 4.0580287774 2.0284537254 
Al 4.0837007514 6.1125566515 2.0285971325 
Al 4.0837928282 4.0581700677 4.0837928282 
Al 6.0954917448 6.0896702663 4.0610270954 
Al 6.0929077725 4.0567873276 6.0929077725 
Al 4.0610270954 6.0896702663 6.0954917448 
Al 4.0574562076 4.0572831667 8.1169666812 
Al 6.0868015967 6.0857331879 8.1152172213 
Al 6.0862560150 4.0568841671 10.1426300552 
Al 4.0573323802 6.0858062143 10.1426279385 
Al 4.0578774327 4.0578298067 12.1672017366 
Al 6.0864973198 6.0854939998 12.1698317473 
Al 6.0940714332 4.0582743156 14.1920401233 
Al 4.0622436739 6.0906815240 14.1897561945 
Al 4.0619960189 8.1240010339 16.2238160233 
Al 6.0879239815 10.1424898232 16.2278832793 
Al 6.0933147098 8.1214916755 2.0287294268 
Al 4.0582399191 10.1443461769 2.0285780821 
Al 4.0614276826 8.1239523496 4.0614276826 
Al 6.0865041991 10.1439053723 4.0570000569 
Al 6.0864242933 8.1147536621 6.0864242933 
Al 4.0570000569 10.1439053723 6.0865041991 
Al 4.0575562221 8.1151526617 8.1152897186 
Al 6.0855638512 10.1422030092 8.1139016868 
Al 6.0860327022 8.1143541333 10.1422908526 
Al 4.0570656748 10.1429353904 10.1426454013 
Al 4.0574641453 8.1151124442 12.1694189891 
Al 6.0852145942 10.1424982901 12.1712848680 
Al 6.0866100345 8.1148399180 14.1983833706 
Al 4.0582023475 10.1424982901 14.1982976439 
Al 4.0648482841 12.1635694642 16.2275811192 
Al 6.0897395885 14.1979251031 16.2278472953 
Al 6.0876906144 12.1698582062 2.0286145953 
Al 4.0668612742 14.1923729758 2.0326310503 
Al 4.0581806512 12.1702413305 4.0581806512 
Al 6.0878668304 14.1981214278 4.0581721844 
Al 6.0856569864 12.1711705657 6.0856569864 
Al 4.0581721844 14.1981214278 6.0878668304 
Al 4.0575324091 12.1706964229 8.1143070365 
Al 6.0856543405 14.1994115619 8.1138371272 
Al 6.0858654822 12.1710858973 10.1425903669 
Al 4.0584584693 14.1990480171 10.1411393630 
Al 4.0581166208 12.1701571913 12.1698894277 
Al 6.0866677148 14.1995046971 12.1700021424 
Al 6.0870799439 12.1698846651 14.1990358461 
Al 4.0667437969 14.1943166437 14.1942563175 
Al 8.1153362862 16.2268524421 16.2278774584 
Al 10.1395438937 2.0282314710 16.2275742398 
Al 10.1395211391 16.2271011554 2.0286611629 
Al 8.1169539809 2.0287712318 2.0289268099 
Al 8.1152463261 16.2268487379 4.0580208397 
Al 10.1412219146 2.0281875493 4.0585738299 
Al 10.1412414942 16.2276954214 6.0870238511 
Al 8.1152696099 2.0286399958 6.0869074321 
Al 8.1138852823 0.0001391736 8.1138852823 
Al 10.1421892506 2.0285008222 8.1143075657 
Al 10.1411864598 16.2275197346 10.1411864598 
Al 8.1143075657 2.0285008222 10.1421892506 
Al 8.1138672903 0.0001164190 12.1702423889 
Al 10.1412272064 2.0283621778 12.1695920301 
Al 10.1395311934 16.2277160593 14.1990437837 
Al 8.1152759600 2.0288146243 14.1979256323 
Al 8.1169772647 4.0578991290 16.2278393576 
Al 10.1412605446 6.0871953045 16.2275461935 
Al 10.1411615884 4.0581478422 2.0286225330 
Al 8.1170169530 6.0859575590 2.0287511230 
Al 8.1169666812 4.0572831667 4.0574562076 
Al 10.1426279385 6.0858062143 4.0573323802 
Al 10.1426300552 4.0568841671 6.0862560150 
Al 8.1152172213 6.0857331879 6.0868015967 
Al 8.1153103565 4.0574789623 8.1153103565 
Al 10.1423326576 6.0859628508 8.1143160325 
Al 10.1426120632 4.0568624708 10.1426120632 
Al 8.1143160325 6.0859628508 10.1423326576 
Al 8.1152558513 4.0573048629 12.1694756111 
Al 10.1426602183 6.0855881933 12.1708445925 
Al 10.1412504902 4.0581515465 14.1984802100 
Al 8.1153585117 6.0859512089 14.1980415221 
Al 8.1152129879 8.1150616432 16.2279150300 
Al 10.1412616029 10.1415267207 16.2277684479 
Al 10.1421924256 8.1148309220 2.0287310143 
Al 8.1152357425 10.1434693303 2.0287310143 
Al 8.1152897186 8.1151526617 4.0575562221 
Al 10.1426454013 10.1429353904 4.0570656748 
Al 10.1422908526 8.1143541333 6.0860327022 
Al 8.1139016868 10.1422030092 6.0855638512 
Al 8.1138418898 8.1138450648 8.1138418898 
Al 10.1423009070 10.1424988192 8.1141974969 
Al 10.1423331868 8.1144229263 10.1423331868 
Al 8.1141974969 10.1424988192 10.1423009070 
Al 8.1139080369 8.1139112120 12.1706334508 
Al 10.1425956587 10.1427941001 12.1709350818 
Al 10.1421903089 8.1143012156 14.1989675822 
Al 8.1138524733 10.1420611897 14.1994337873 
Al 8.1143054490 12.1701661873 16.2277684479 
Al 10.1394809216 14.1990406087 16.2277483392 
Al 10.1412843575 12.1699354661 2.0285844322 
Al 8.1152368009 14.1978033923 2.0289543271 
Al 8.1143070365 12.1706964229 4.0575324091 
Al 10.1411393630 14.1990480171 4.0584584693 
Al 10.1425903669 12.1710858973 6.0858654822 
Al 8.1138371272 14.1994115619 6.0856543405 
Al 8.1141646879 12.1705752413 8.1141646879 
Al 10.1421823713 14.1990358461 8.1141652170 
Al 10.1426565141 12.1711531028 10.1426565141 
Al 8.1141652170 14.1990358461 10.1421823713 
Al 8.1142075512 12.1706435052 12.1704662308 
Al 10.1412801241 14.1992649798 12.1696968072 
Al 10.1412070977 12.1698449768 14.1989432401 
Al 8.1138704653 14.1991919533 14.1991670820 
Al 12.1672229037 16.2269709778 0.0000486843 
Al 14.1654791316 2.0493244746 16.2246494774 
Al 14.1687261630 16.2214013877 2.0529869101 
Al 12.1581453978 2.0323532323 2.0326601551 
Al 12.1624274998 16.2267259688 4.0644598680 
Al 14.1844421969 2.0285013514 4.0720577944 
Al 14.1986225587 16.2271699485 6.0892971964 
Al 12.1684442447 2.0285008222 6.0880541591 
Al 12.1702423889 0.0001164190 8.1138672903 
Al 14.1979256323 2.0288146243 8.1152759600 
Al 14.1990437837 16.2277160593 10.1395311934 
Al 12.1695920301 2.0283621778 10.1412272064 
Al 12.1635927480 0.0002127292 12.1635927480 
Al 14.1942944183 2.0326146458 12.1600641944 
Al 14.1726997546 16.2268286292 14.1726997546 
Al 12.1600641944 2.0326146458 14.1942944183 
Al 12.1606357058 4.0644111837 16.2279187342 
Al 14.1896392463 6.0926246627 16.2238705286 
Al 14.1919374630 4.0671343296 2.0324273171 
Al 12.1667588153 6.0870735937 2.0286526961 
Al 12.1672017366 4.0578298067 4.0578774327 
Al 14.1897561945 6.0906815240 4.0622436739 
Al 14.1920401233 4.0582743156 6.0940714332 
Al 12.1698317473 6.0854939998 6.0864973198 
Al 12.1694756111 4.0573048629 8.1152558513 
Al 14.1980415221 6.0859512089 8.1153585117 
Al 14.1984802100 4.0581515465 10.1412504902 
Al 12.1708445925 6.0855881933 10.1426602183 
Al 12.1690083476 4.0577366716 12.1690083476 
Al 14.1983278070 6.0868777982 12.1686299859 
Al 14.1881527876 4.0666612452 14.1881527876 
Al 12.1686299859 6.0868777982 14.1983278070 
Al 12.1688072603 8.1151394323 16.2278859252 
Al 14.1982595431 10.1406509324 16.2279219093 
Al 14.1916522364 8.1214265867 2.0289194014 
Al 12.1685744223 10.1425062277 2.0286161828 
Al 12.1694189891 8.1151124442 4.0574641453 
Al 14.1982976439 10.1424982901 4.0582023475 
Al 14.1983833706 8.1148399180 6.0866100345 
Al 12.1712848680 10.1424982901 6.0852145942 
Al 12.1706334508 8.1139112120 8.1139080369 
Al 14.1994337873 10.1420611897 8.1138524733 
Al 14.1989675822 8.1143012156 10.1421903089 
Al 12.1709350818 10.1427941001 10.1425956587 
Al 12.1708408883 8.1138270728 12.1708408883 
Al 14.1994994053 10.1410912079 12.1699936756 
Al 14.1983188109 8.1147568372 14.1983188109 
Al 12.1699936756 10.1410912079 14.1994994053 
Al 12.1631842232 12.1635064921 16.2277700354 
Al 14.1727934190 14.1724346369 16.2279055048 
Al 14.1945039724 12.1609960755 2.0326834389 
Al 12.1598726322 14.1941123813 2.0327839825 
Al 12.1698894277 12.1701571913 4.0581166208 
Al 14.1942563175 14.1943166437 4.0667437969 
Al 14.1990358461 12.1698846651 6.0870799439 
Al 12.1700021424 14.1995046971 6.0866677148 
Al 12.1704662308 12.1706435052 8.1142075512 
Al 14.1991670820 14.1991919533 8.1138704653 
Al 14.1989432401 12.1698449768 10.1412070977 
Al 12.1696968072 14.1992649798 10.1412801241 
Al 12.1700741105 12.1702439764 12.1700741105 
Al 14.1954728959 14.1953284305 12.1610077174 
Al 14.1950723088 12.1610452889 14.1950723088 
Al 12.1610077174 14.1953284305 14.1954728959 

