&CONTROL
/
&SYSTEM
   ntyp             = 3
   nat              = 22
   ibrav            = 0
/
&ELECTRONS
/
&IONS
/
&CELL
/

ATOMIC_SPECIES
Al 26.9815385 Al_dummy.UPF
Mg 24.305 Mg_dummy.UPF
Si 28.085 Si_dummy.UPF

K_POINTS gamma

CELL_PARAMETERS angstrom
14.52865927216863 0.00000000000000 -4.31685675954080
0.00000000000000 4.12158666460227 0.00000000000000
0.00000000000000 0.00000000000000 6.64555081728478

ATOMIC_POSITIONS angstrom
Al 0.0133056318 0.0000000000 6.5639516914 
Mg 1.0579887597 2.0607933323 1.9130756307 
Mg 2.2408511700 2.0607933323 5.3199047537 
Mg 5.0499206576 0.0000000000 -0.9971095675 
Mg 6.2327973556 0.0000000000 2.4097819984 
Si 0.8514329024 0.0000000000 4.0876531760 
Si 2.6633854140 0.0000000000 0.5774746854 
Al 3.1786415597 0.0000000000 3.0983796646 
Al 4.1120847586 2.0607933323 1.2244091714 
Si 4.6272869282 2.0607933323 3.7453030380 
Si 6.4392722488 2.0607933323 0.2351795818 
Al 7.2774339159 2.0607933323 4.4044461714 
Mg 8.3219577615 0.0000000000 -0.2468489977 
Mg 9.5046651229 0.0000000000 3.1610384798 
Mg 12.3147670352 2.0607933323 -3.1550968781 
Mg 13.4974855093 2.0607933323 0.2528509256 
Si 8.1155299651 2.0607933323 1.9283487433 
Si 9.9278745970 2.0607933323 -1.5813222663 
Al 10.4429428848 2.0607933323 0.9396869608 
Al 11.3764416473 0.0000000000 -0.9337511801 
Si 11.8914570174 0.0000000000 1.5872464052 
Si 13.7038333999 0.0000000000 -1.9223700992 

