&CONTROL
/
&SYSTEM
   ntyp             = 3
   nat              = 22
   ibrav            = 0
/
&ELECTRONS
/
&IONS
/
&CELL
/

ATOMIC_SPECIES
Al 26.9815385 Al_dummy.UPF
Mg 24.305 Mg_dummy.UPF
Si 28.085 Si_dummy.UPF

K_POINTS gamma

CELL_PARAMETERS angstrom
15.43224523452271 0.00000000000000 0.00000000000000
0.00000000000000 4.05703339504001 0.00000000000000
-1.68781388815663 0.00000000000000 6.18865074684859

ATOMIC_POSITIONS angstrom
Al 2.0468288749 0.0000000000 6.1178108520 
Mg 4.2772536663 2.0285166975 2.0848354405 
Mg 4.5610106577 2.0285166975 5.5637543749 
Mg 8.9366055584 0.0000000000 0.4832329868 
Mg 9.2203366201 0.0000000000 3.9621402793 
Si 3.5096408465 0.0000000000 4.0330955347 
Si 6.1803982282 0.0000000000 1.2645033412 
Al 6.0420279129 0.0000000000 3.8005316759 
Al 7.4555777196 2.0285166975 2.2464413980 
Si 7.3171931165 2.0285166975 4.7824697327 
Si 9.9879780154 2.0285166975 2.0138939437 
Al 9.7629506984 2.0285166975 6.1178124396 
Mg 11.9933760190 0.0000000000 2.0848370280 
Mg 12.2771345979 0.0000000000 5.5637549041 
Mg 1.2204821474 2.0285166975 0.4832319284 
Mg 1.5042137382 2.0285166975 3.9621386918 
Si 11.2257637284 2.0285166975 4.0330971223 
Si 13.8965200517 2.0285166975 1.2645033412 
Al 13.7581507947 2.0285166975 3.8005316759 
Al -0.2605451622 0.0000000000 2.2464408688 
Si -0.3989287070 0.0000000000 4.7824686744 
Si 2.2718556627 0.0000000000 2.0138918270 

