&CONTROL
/
&SYSTEM
   ntyp             = 3
   nat              = 264
   ibrav            = 0
/
&ELECTRONS
/
&IONS
/
&CELL
/

ATOMIC_SPECIES
Mg 24.305 Mg_dummy.UPF
Si 28.085 Si_dummy.UPF
Al 26.9815385 Al_dummy.UPF

K_POINTS gamma

CELL_PARAMETERS angstrom
14.11231375561843 0.00000000000000 -3.84880639610082
0.00000000000000 4.05702969079954 0.00000000000000
0.00000000000000 0.00000000000000 80.44983075664959

ATOMIC_POSITIONS angstrom
Mg 0.0072804201 0.0000000000 4.5705533103 
Mg 1.0447937259 2.0285166975 6.7948391169 
Mg 2.1989239304 2.0285166975 3.4257673170 
Mg 4.8872409995 0.0000000000 3.8432325725 
Mg 5.9103749730 0.0000000000 0.3155705961 
Si 0.7559195909 0.0000000000 1.9533264368 
Si 2.6202765217 0.0000000000 5.4387748888 
Al 3.0898805494 0.0000000000 1.0648500714 
Al 3.9828252873 2.0285166975 6.2142433443 
Si 4.4773202235 2.0285166975 1.8300180924 
Si 6.2610707648 2.0285166975 5.2761899535 
Mg 7.0634388854 2.0285166975 2.6461559332 
Mg 8.1009500746 0.0000000000 4.8704369772 
Mg 9.2550887459 0.0000000000 1.5013551230 
Mg 11.9434010524 2.0285166975 1.9188087366 
Mg 12.9665260299 2.0285166975 -1.6088437147 
Si 7.8120828189 2.0285166975 0.0289269430 
Si 9.6764429247 2.0285166975 3.5143563447 
Al 10.1460294896 2.0285166975 -0.8595695312 
Al 11.0389848110 0.0000000000 4.2898248001 
Si 11.5334723387 0.0000000000 -0.0944110353 
Si 13.3172329344 0.0000000000 3.3517777594 
Mg 0.0147444646 0.0000000000 11.5766251527 
Mg 1.0424510584 2.0285166975 13.7792120477 
Mg 2.1856537535 2.0285166975 10.3821869909 
Mg 4.8969111838 0.0000000000 10.8441539331 
Mg 6.0415029691 0.0000000000 7.4465446646 
Si 0.8273669812 0.0000000000 8.9585013238 
Si 2.6183995301 0.0000000000 12.4086811731 
Al 3.1091336039 0.0000000000 8.0340504332 
Al 3.9752014312 2.0285166975 13.1997053218 
Si 4.4673611084 2.0285166975 8.8233690438 
Si 6.2549926354 2.0285166975 12.2711802959 
Mg 7.0709108676 2.0285166975 9.6522272464 
Mg 8.0986074071 0.0000000000 11.8548072621 
Mg 9.2418106313 0.0000000000 8.4577753260 
Mg 11.9530696492 2.0285166975 8.9197353889 
Mg 13.0976577302 2.0285166975 5.5221356456 
Si 7.8835201548 2.0285166975 7.0340981258 
Si 9.6745643456 2.0285166975 10.4842647456 
Al 10.1652820149 2.0285166975 6.1096318891 
Al 11.0313604257 0.0000000000 11.2752952445 
Si 11.5235126944 0.0000000000 6.8989499704 
Si 13.3111473965 0.0000000000 10.3467755103 
Mg 0.0075259583 0.0000000000 18.5641620340 
Mg 1.0325829618 2.0285166975 20.7701679430 
Mg 2.1819034746 2.0285166975 17.3700276200 
Mg 4.8895228116 0.0000000000 17.8323596945 
Mg 6.0379860573 0.0000000000 14.4336507958 
Si 0.8263451400 0.0000000000 15.9439204380 
Si 2.6101475407 0.0000000000 19.3976325452 
Al 3.1057849705 0.0000000000 15.0143513455 
Al 3.9652544872 2.0285166975 20.1913242762 
Si 4.4616010144 2.0285166975 15.8062142401 
Si 6.2446382249 2.0285166975 19.2615249916 
Mg 7.0636913029 2.0285166975 16.6397546026 
Mg 8.0887472481 0.0000000000 18.8457658034 
Mg 9.2380635275 0.0000000000 15.4456175426 
Mg 11.9456812770 2.0285166975 15.9079538506 
Mg 13.0941424060 2.0285166975 12.5092449518 
Si 7.8825036053 2.0285166975 14.0195124774 
Si 9.6663112978 2.0285166975 17.4732251137 
Al 10.1619370857 2.0285166975 13.0899396806 
Al 11.0214108358 0.0000000000 18.2669263699 
Si 11.5177547172 0.0000000000 13.8818068086 
Si 13.3007871651 0.0000000000 17.3371339646 
Mg 14.1105156115 0.0000000000 21.7095606814 
Mg 1.0243976487 2.0285166975 27.7646560963 
Mg 2.1720242653 2.0285166975 24.3632552731 
Mg 4.8806448056 0.0000000000 24.8279448321 
Mg 6.0276866813 0.0000000000 21.4253205512 
Si 0.8164939770 0.0000000000 22.9358770075 
Si 2.6021024596 0.0000000000 26.3928615465 
Al 3.0961348949 0.0000000000 22.0062708725 
Al 3.9579677170 2.0285166975 27.1874788085 
Si 4.4517011672 2.0285166975 22.8002451842 
Si 6.2383039737 2.0285166975 26.2588961022 
Mg 7.0543603212 2.0285166975 23.6339612335 
Mg 8.0805582308 0.0000000000 25.8402534274 
Mg 9.2281832598 0.0000000000 22.4388473124 
Mg 11.9368027417 2.0285166975 22.9035421632 
Mg 13.0838462050 2.0285166975 19.5009162948 
Si 7.8726529716 2.0285166975 21.0114701052 
Si 9.6582646292 2.0285166975 24.4684652277 
Al 10.1522907144 2.0285166975 20.0818713787 
Al 11.0141267115 0.0000000000 25.2630814314 
Si 11.5078670410 0.0000000000 20.8758504529 
Si 13.2944523847 0.0000000000 24.3344997835 
Mg 14.1095477463 0.0000000000 28.7110260361 
Mg 1.0281061226 2.0285166975 34.7718153978 
Mg 2.1713088177 2.0285166975 31.3641374746 
Mg 4.8823254724 0.0000000000 31.8311548841 
Mg 6.0241073266 0.0000000000 28.4242860728 
Si 0.8114313387 0.0000000000 29.9331888503 
Si 2.6035661638 0.0000000000 33.3944634290 
Al 3.0910246306 0.0000000000 29.0025852163 
Al 3.9617153500 2.0285166975 34.1881731520 
Si 4.4478307650 2.0285166975 29.7972241745 
Si 6.2448895841 2.0285166975 33.2638746645 
Mg 7.0533839892 2.0285166975 30.6354377010 
Mg 8.0842630004 0.0000000000 32.8474143165 
Mg 9.2274693997 0.0000000000 29.4397348057 
Mg 11.9384881711 2.0285166975 29.9067458651 
Mg 13.0802689670 2.0285166975 26.4998828747 
Si 7.8675871581 2.0285166975 28.0087967650 
Si 9.6597246291 2.0285166975 31.4700575850 
Al 10.1471740999 2.0285166975 27.0781931309 
Al 11.0178769904 0.0000000000 32.2637577829 
Si 11.5039982264 0.0000000000 27.8728252099 
Si 13.3010464619 0.0000000000 31.3394672330 
Mg 0.0108301408 0.0000000000 39.5930039687 
Mg 1.1678925162 2.0285166975 41.9364663040 
Mg 2.1889759280 2.0285166975 38.3931052273 
Mg 4.8757821962 0.0000000000 38.8173349551 
Mg 6.0308194104 0.0000000000 35.4352924926 
Si 0.8122256337 0.0000000000 36.9502543492 
Si 2.5997841342 0.0000000000 40.4165735742 
Al 3.0893593099 0.0000000000 36.0091375515 
Al 3.9875635400 2.0285166975 41.1878885177 
Si 4.4539660456 2.0285166975 36.7911455789 
Si 6.3212673184 2.0285166975 40.2971922539 
Mg 7.0669912520 2.0285166975 37.6686012998 
Mg 8.2240409272 0.0000000000 40.0120498765 
Mg 9.2451359809 0.0000000000 36.4686866831 
Mg 11.9319406615 2.0285166975 36.8929206443 
Mg 13.0869778757 2.0285166975 33.5108855903 
Si 7.8683835698 2.0285166975 35.0258458594 
Si 9.6559468330 2.0285166975 38.4921619093 
Al 10.1455087792 2.0285166975 34.0847274742 
Al 11.0437177719 0.0000000000 39.2634789695 
Si 11.5101239818 0.0000000000 34.8667280931 
Si 13.3774189044 0.0000000000 38.3727805890 
Al 0.7658781768 0.0000000000 44.3857757234 
Al 0.0839518477 2.0285166975 46.3264019072 
Al 2.6041466712 2.0285166975 44.9708933152 
Al 1.9924490372 0.0000000000 46.9566117475 
Al 4.5439695639 0.0000000000 45.6993480797 
Al 3.9021247043 2.0285166975 47.6095576866 
Al 6.4826420255 2.0285166975 46.3348597465 
Al 8.4027308417 0.0000000000 46.9694173068 
Al 10.3282892336 2.0285166975 41.1502677223 
Al 12.9236928389 2.0285166975 40.0405095561 
Al 12.2201205160 0.0000000000 41.8926832400 
Al 13.5387983741 0.0000000000 44.4104544318 
Al 1.3465729056 2.0285166975 48.8938194465 
Al 3.2721344725 0.0000000000 43.0746751538 
Al 5.8675401945 0.0000000000 41.9649159292 
Al 5.1639652257 2.0285166975 43.8170912006 
Al 7.8220392881 2.0285166975 42.4613751712 
Al 7.1401103131 0.0000000000 44.4020008258 
Al 9.6603051365 0.0000000000 43.0464890588 
Al 9.0486075025 2.0285166975 45.0322101370 
Al 10.9582821113 0.0000000000 45.6851539594 
Al 11.6001269709 2.0285166975 43.7749432942 
Al 0.6953282711 0.0000000000 50.8113036525 
Al 0.0474682541 2.0285166975 52.7292757599 
Al 2.6158721798 2.0285166975 51.4501576026 
Al 1.9698462910 0.0000000000 53.3696204022 
Al 4.5377326813 0.0000000000 52.0855359167 
Al 3.8912495835 2.0285166975 54.0093840079 
Al 6.4583400913 2.0285166975 52.7280041471 
Al 8.3793692554 0.0000000000 53.3672179376 
Al 10.3181327354 2.0285166975 47.6048358384 
Al 12.8840341821 2.0285166975 46.3198543975 
Al 12.2392952522 0.0000000000 48.2394145658 
Al 13.5144969691 0.0000000000 50.8036004199 
Al 1.3232123776 2.0285166975 55.2916206065 
Al 3.2619747993 0.0000000000 49.5292385073 
Al 5.8278773042 0.0000000000 48.2442586539 
Al 5.1831383744 2.0285166975 50.1638182930 
Al 7.7514856781 2.0285166975 48.8869015128 
Al 7.1036251320 0.0000000000 50.8048730911 
Al 9.6720295868 0.0000000000 49.5257549337 
Al 9.0260031688 2.0285166975 51.4452177333 
Al 10.9474064613 0.0000000000 52.0849808098 
Al 11.5938895592 2.0285166975 50.1611327186 
Al 0.6756359996 0.0000000000 57.2122343666 
Al 0.0278744096 2.0285166975 59.1323819215 
Al 2.5958407057 2.0285166975 57.8508967545 
Al 1.9479515839 0.0000000000 59.7707601412 
Al 4.5158231573 0.0000000000 58.4898427813 
Al 3.8676551592 2.0285166975 60.4092373171 
Al 6.4359506035 2.0285166975 59.1278717441 
Al 8.3556769333 0.0000000000 59.7659832585 
Al 10.3002047407 2.0285166975 54.0062645082 
Al 12.8675503119 2.0285166975 52.7252122081 
Al 12.2202258223 0.0000000000 54.6460164720 
Al 13.4921074813 0.0000000000 57.2034685461 
Al 1.2995200555 2.0285166975 61.6903869858 
Al 3.2440478629 0.0000000000 55.9306677062 
Al 5.8113934341 0.0000000000 54.6496154062 
Al 5.1640689445 2.0285166975 56.5704196700 
Al 7.7317928774 2.0285166975 55.2878311685 
Al 7.0840312874 0.0000000000 57.2079792526 
Al 9.6519975835 0.0000000000 55.9264930272 
Al 9.0041084617 2.0285166975 57.8463569432 
Al 10.9238120370 0.0000000000 58.4848341190 
Al 11.5719800351 2.0285166975 56.5654395833 
Al 0.6510980523 0.0000000000 63.6106313801 
Al 0.0028459150 2.0285166975 65.5312858868 
Al 2.5712112108 2.0285166975 64.2494175955 
Al 1.9222076418 0.0000000000 66.1676966257 
Al 4.4906560183 0.0000000000 64.8880180697 
Al 3.8418143776 2.0285166975 66.8058854000 
Al 6.4104707208 2.0285166975 65.5250103743 
Al 8.3299557459 0.0000000000 66.1616216713 
Al 10.2755858293 2.0285166975 60.4045408694 
Al 12.8437077035 2.0285166975 59.1232250390 
Al 12.1953232719 0.0000000000 61.0437424888 
Al 13.4666281278 0.0000000000 63.6006077054 
Al 1.2737993972 2.0285166975 68.0860259277 
Al 3.2194284224 0.0000000000 62.3289445966 
Al 5.7875508257 0.0000000000 61.0476277079 
Al 5.1391658649 2.0285166975 62.9681456869 
Al 7.7072549302 2.0285166975 61.6862276529 
Al 7.0590022637 0.0000000000 63.6068821596 
Al 9.6273686177 0.0000000000 62.3250133391 
Al 8.9783645196 2.0285166975 64.2432928985 
Al 10.8979712554 0.0000000000 64.8814816727 
Al 11.5468134253 2.0285166975 62.9636148716 
Al 0.6256213447 0.0000000000 70.0050775566 
Al 14.0907085085 2.0285166975 68.0763028256 
Al 2.5449079283 2.0285166975 70.6450882881 
Al 1.8983676793 0.0000000000 72.5647722837 
Al 4.4651422683 0.0000000000 71.2789293424 
Al 3.8198588152 2.0285166975 73.1965723016 
Al 6.3856491346 2.0285166975 71.9166423864 
Al 8.3098475410 0.0000000000 72.5557201784 
Al 10.2498096074 2.0285166975 66.7999871908 
Al 12.8181114019 2.0285166975 65.5189158403 
Al 12.1698650855 0.0000000000 67.4375166103 
Al 13.4418070707 0.0000000000 69.9922402467 
Al 1.2536917216 2.0285166975 74.4801260223 
Al 3.1936532588 0.0000000000 68.7243914472 
Al 5.7619545241 0.0000000000 67.4433185092 
Al 5.1137076785 2.0285166975 69.3619198083 
Al 7.6817787517 2.0285166975 68.0806733002 
Al 7.0345516307 0.0000000000 70.0007044362 
Al 9.6010653353 0.0000000000 68.7206840317 
Al 8.9545250863 2.0285166975 70.6403674982 
Al 10.8760162221 0.0000000000 71.2721675160 
Al 11.5213002045 2.0285166975 69.3545256152 
Al 0.5989788597 0.0000000000 76.3850703160 
Al 14.0532739834 2.0285166975 74.4641491040 
Al 2.5372676678 2.0285166975 77.0189314790 
Al 1.9168661270 0.0000000000 78.8951705549 
Al 4.4780563090 0.0000000000 77.7453594948 
Al 3.8085127266 2.0285166975 -0.8167411028 
Al 6.3149066083 2.0285166975 78.3230241549 
Al 8.2684563580 0.0000000000 -1.6320851778 
Al 10.2355466941 2.0285166975 73.1890696271 
Al 12.7907412982 2.0285166975 71.9044967110 
Al 12.1438904221 0.0000000000 73.8384975962 
Al 13.3710661320 0.0000000000 76.3986156650 
Al 1.2123058303 2.0285166975 0.2923169619 
Al 3.1793903454 0.0000000000 75.1134760002 
Al 5.7345833620 0.0000000000 73.8289004383 
Al 5.0877324860 2.0285166975 75.7629034401 
Al 7.6551330916 2.0285166975 74.4606644720 
Al 6.9971144597 0.0000000000 76.3885523020 
Al 9.5934224289 0.0000000000 75.0945245768 
Al 8.9730166547 2.0285166975 76.9707631235 
Al 10.8646648418 0.0000000000 -2.7411585886 
Al 11.5342126576 2.0285166975 75.8209515342 

