&CONTROL
  calculation = 'scf'
  outdir = './out/'
  prefix = 'aiida'
  pseudo_dir = '/users/aglensk/Dropbox/Albert/scripts/dotfiles/scripts/potentials/quantum_espresso/pseudo_SSSPefV1.1_alalloy'
  tprnfor = .true.             	! calculate the pressure of the cell
  tstress = .true.
  verbosity = 'high'
  wf_collect = .true.
  etot_conv_thr = 2.5d-4    ! EDIFFG positive atomic units
  forc_conv_thr = 2.0d-5
/
&SYSTEM
  degauss =   4.4100000000d-02  ! SIGMA in Rydberg  so, 0.60001101eV
  ecutrho = 400                 ! AUGMENTATION charges
  ecutwfc =  40                 ! ENCUT in Rydberg, so 544eV
  ibrav = 0                     ! no symmetry
   nat              = 22
   ntyp             = 3
  occupations = 'smearing'      ! using smearing 
  smearing = 'mp'               ! methfessel paxton
  nosym= .true. 		! no symmetry
/
&ELECTRONS
  conv_thr =   1.0000000000d-12   	! EDIFF
  mixing_beta =   4.0000000000d-01      ! MIXING
  mixing_mode = 'local-TF'                 ! MIXING
/
&IONS
  !press_conv_thr = 0.05                 ! just for volume relaxations
/
ATOMIC_SPECIES
Mg 24.305 Mg.pbe-n-kjpaw_psl.0.3.0.UPF
Si 28.085 Si.pbe-n-rrkjus_psl.1.0.0.UPF
Al 26.9815385 Al.pbe-n-kjpaw_psl.1.0.0.UPF

K_POINTS automatic
6 20 13 0 0 0
CELL_PARAMETERS angstrom
14.75488517557073 0.00000000000000 -4.22742263589225
0.00000000000000 4.05429490297534 0.00000000000000
0.00000000000000 0.00000000000000 6.83716800193879

ATOMIC_POSITIONS angstrom
Mg 0.0170654359 0.0000000000 6.7536802426 
Mg 1.1150308879 2.0271477161 2.0581585590 
Mg 2.3012165311 2.0271477161 5.5076832869 
Mg 5.1104564137 0.0000000000 -0.9505636692 
Mg 6.2966198315 0.0000000000 2.4990002178 
Si 0.8694471530 0.0000000000 4.1722294528 
Si 2.7567169278 0.0000000000 0.6536317528 
Al 3.2150902276 0.0000000000 3.2209720323 
Al 4.1965541417 2.0271477161 1.3361650482 
Si 4.6549560170 2.0271477161 3.9034910399 
Si 6.5421792243 2.0271477161 0.3849187404 
Mg 7.3945826376 2.0271477161 4.6406444194 
Mg 8.4924512503 0.0000000000 -0.0548222298 
Mg 9.6788189304 0.0000000000 3.3944125089 
Mg 12.4877413067 2.0271477161 -3.0647165856 
Mg 13.6740857031 2.0271477161 0.3845578415 
Si 8.2469024410 2.0271477161 2.0592274969 
Si 10.1341992039 2.0271477161 -1.4597856072 
Al 10.5924275091 2.0271477161 1.1074620663 
Al 11.5741025649 0.0000000000 -0.7777486800 
Si 12.0323605041 0.0000000000 1.7894847056 
Si 13.9196101702 0.0000000000 -1.7295019396 

