Al 
 1.0000000000000000
    12.1227725562318014   -0.0000000000000044   -0.0000000000000165
    -0.0000000000000044   12.1227725562317996   -0.0000000000000350
    -0.0000000000000165   -0.0000000000000350   12.1227725562317055
 108
Direct
  0.0000000000000000  0.0000000000000000  0.0000000000000000
  0.0000000000000000  0.1666666666666667  0.1666666666666667
  0.1666666666666667  0.0000000000000000  0.1666666666666667
  0.1666666666666667  0.1666666666666667  0.0000000000000000
  0.0000000000000000  0.0000000000000000  0.3333333333333334
  0.0000000000000000  0.1666666666666667  0.5000000000000000
  0.1666666666666667  0.0000000000000000  0.5000000000000000
  0.1666666666666667  0.1666666666666667  0.3333333333333334
  0.0000000000000000  0.0000000000000000  0.6666666666666669
  0.0000000000000000  0.1666666666666667  0.8333333333333335
  0.1666666666666667  0.0000000000000000  0.8333333333333336
  0.1666666666666667  0.1666666666666668  0.6666666666666669
  0.0000000000000000  0.3333333333333334  0.0000000000000000
  0.0000000000000000  0.5000000000000001  0.1666666666666667
  0.1666666666666667  0.3333333333333335  0.1666666666666667
  0.1666666666666667  0.5000000000000000  0.0000000000000000
  0.0000000000000000  0.3333333333333333  0.3333333333333334
  0.0000000000000000  0.5000000000000000  0.4999999999999999
  0.1666666666666667  0.3333333333333334  0.4999999999999999
  0.1666666666666667  0.4999999999999999  0.3333333333333335
  0.0000000000000000  0.3333333333333334  0.6666666666666669
  0.0000000000000000  0.5000000000000000  0.8333333333333336
  0.1666666666666667  0.3333333333333334  0.8333333333333336
  0.1666666666666667  0.5000000000000000  0.6666666666666666
  0.0000000000000000  0.6666666666666667  0.0000000000000000
  0.0000000000000000  0.8333333333333336  0.1666666666666667
  0.1666666666666667  0.6666666666666667  0.1666666666666667
  0.1666666666666667  0.8333333333333334  0.0000000000000000
  0.0000000000000000  0.6666666666666670  0.3333333333333334
  0.0000000000000000  0.8333333333333337  0.5000000000000000
  0.1666666666666667  0.6666666666666670  0.4999999999999999
  0.1666666666666667  0.8333333333333336  0.3333333333333334
  0.0000000000000000  0.6666666666666666  0.6666666666666669
  0.0000000000000000  0.8333333333333334  0.8333333333333335
  0.1666666666666667  0.6666666666666666  0.8333333333333336
  0.1666666666666667  0.8333333333333333  0.6666666666666669
  0.3333333333333334  0.0000000000000000  0.0000000000000000
  0.3333333333333334  0.1666666666666667  0.1666666666666667
  0.4999999999999999  0.0000000000000000  0.1666666666666667
  0.4999999999999999  0.1666666666666667  0.0000000000000000
  0.3333333333333334  0.0000000000000000  0.3333333333333334
  0.3333333333333334  0.1666666666666667  0.4999999999999999
  0.4999999999999999  0.0000000000000000  0.4999999999999999
  0.4999999999999999  0.1666666666666667  0.3333333333333334
  0.3333333333333334  0.0000000000000000  0.6666666666666666
  0.3333333333333333  0.1666666666666667  0.8333333333333335
  0.4999999999999999  0.0000000000000000  0.8333333333333336
  0.4999999999999999  0.1666666666666668  0.6666666666666669
  0.3333333333333334  0.3333333333333335  0.0000000000000000
  0.3333333333333334  0.5000000000000001  0.1666666666666667
  0.4999999999999999  0.3333333333333335  0.1666666666666667
  0.4999999999999999  0.4999999999999999  0.0000000000000000
  0.3333333333333334  0.3333333333333334  0.3333333333333333
  0.3333333333333334  0.5000000000000000  0.5000000000000000
  0.4999999999999999  0.3333333333333334  0.4999999999999999
  0.4999999999999999  0.4999999999999998  0.3333333333333334
  0.3333333333333334  0.3333333333333335  0.6666666666666669
  0.3333333333333333  0.5000000000000000  0.8333333333333336
  0.4999999999999999  0.3333333333333334  0.8333333333333336
  0.4999999999999999  0.4999999999999999  0.6666666666666670
  0.3333333333333334  0.6666666666666667  0.0000000000000000
  0.3333333333333334  0.8333333333333336  0.1666666666666667
  0.4999999999999999  0.6666666666666667  0.1666666666666667
  0.4999999999999999  0.8333333333333334  0.0000000000000000
  0.3333333333333334  0.6666666666666670  0.3333333333333334
  0.3333333333333334  0.8333333333333337  0.4999999999999999
  0.4999999999999999  0.6666666666666670  0.5000000000000000
  0.4999999999999999  0.8333333333333336  0.3333333333333333
  0.3333333333333334  0.6666666666666666  0.6666666666666669
  0.3333333333333333  0.8333333333333334  0.8333333333333336
  0.4999999999999999  0.6666666666666666  0.8333333333333336
  0.4999999999999999  0.8333333333333333  0.6666666666666666
  0.6666666666666669  0.0000000000000000  0.0000000000000000
  0.6666666666666669  0.1666666666666667  0.1666666666666667
  0.8333333333333336  0.0000000000000000  0.1666666666666667
  0.8333333333333333  0.1666666666666667  0.0000000000000000
  0.6666666666666669  0.0000000000000000  0.3333333333333333
  0.6666666666666666  0.1666666666666667  0.4999999999999999
  0.8333333333333335  0.0000000000000000  0.4999999999999999
  0.8333333333333333  0.1666666666666667  0.3333333333333334
  0.6666666666666669  0.0000000000000000  0.6666666666666669
  0.6666666666666666  0.1666666666666667  0.8333333333333336
  0.8333333333333335  0.0000000000000000  0.8333333333333335
  0.8333333333333333  0.1666666666666667  0.6666666666666669
  0.6666666666666669  0.3333333333333334  0.0000000000000000
  0.6666666666666669  0.5000000000000000  0.1666666666666667
  0.8333333333333336  0.3333333333333335  0.1666666666666667
  0.8333333333333333  0.4999999999999999  0.0000000000000000
  0.6666666666666669  0.3333333333333333  0.3333333333333335
  0.6666666666666666  0.4999999999999999  0.4999999999999999
  0.8333333333333335  0.3333333333333334  0.5000000000000000
  0.8333333333333333  0.4999999999999999  0.3333333333333334
  0.6666666666666669  0.3333333333333334  0.6666666666666669
  0.6666666666666666  0.4999999999999999  0.8333333333333335
  0.8333333333333335  0.3333333333333334  0.8333333333333335
  0.8333333333333333  0.4999999999999999  0.6666666666666669
  0.6666666666666669  0.6666666666666670  0.0000000000000000
  0.6666666666666670  0.8333333333333336  0.1666666666666667
  0.8333333333333336  0.6666666666666667  0.1666666666666667
  0.8333333333333335  0.8333333333333334  0.0000000000000000
  0.6666666666666669  0.6666666666666671  0.3333333333333334
  0.6666666666666669  0.8333333333333337  0.4999999999999999
  0.8333333333333335  0.6666666666666670  0.4999999999999999
  0.8333333333333335  0.8333333333333336  0.3333333333333334
  0.6666666666666669  0.6666666666666667  0.6666666666666666
  0.6666666666666669  0.8333333333333334  0.8333333333333336
  0.8333333333333335  0.6666666666666666  0.8333333333333336
  0.8333333333333335  0.8333333333333333  0.6666666666666669
