Al 
 1.0000000000000000
    12.1227725562318014   -0.0000000000000044   -0.0000000000000165
    -0.0000000000000044   12.1227725562317996   -0.0000000000000350
    -0.0000000000000165   -0.0000000000000350   12.1227725562317055
 108
Cartesian
  0.0000000000000000  0.0000000000000000  0.0000000000000000
 -0.0000000000000035  2.0204620927052939  2.0204620927052788
  2.0204620927052979 -0.0000000000000066  2.0204620927052819
  2.0204620927052996  2.0204620927052996 -0.0000000000000086
 -0.0000000000000055 -0.0000000000000117  4.0409241854105691
 -0.0000000000000090  2.0204620927052823  6.0613862781158465
  2.0204620927052925 -0.0000000000000183  6.0613862781158501
  2.0204620927052943  2.0204620927052881  4.0409241854105602
 -0.0000000000000110 -0.0000000000000234  8.0818483708211382
 -0.0000000000000145  2.0204620927052708 10.1023104635264165
  2.0204620927052868 -0.0000000000000299 10.1023104635264200
  2.0204620927052885  2.0204620927052765  8.0818483708211293
 -0.0000000000000015  4.0409241854106002 -0.0000000000000117
 -0.0000000000000050  6.0613862781158945  2.0204620927052668
  2.0204620927052965  4.0409241854105939  2.0204620927052699
  2.0204620927052983  6.0613862781158989 -0.0000000000000203
 -0.0000000000000070  4.0409241854105877  4.0409241854105575
 -0.0000000000000105  6.0613862781158820  6.0613862781158341
  2.0204620927052912  4.0409241854105815  6.0613862781158376
  2.0204620927052930  6.0613862781158865  4.0409241854105495
 -0.0000000000000125  4.0409241854105771  8.0818483708211257
 -0.0000000000000160  6.0613862781158705 10.1023104635264058
  2.0204620927052854  4.0409241854105700 10.1023104635264094
  2.0204620927052872  6.0613862781158758  8.0818483708211168
 -0.0000000000000029  8.0818483708212003 -0.0000000000000234
 -0.0000000000000064 10.1023104635264964  2.0204620927052552
  2.0204620927052948  8.0818483708211950  2.0204620927052583
  2.0204620927052965 10.1023104635265000 -0.0000000000000320
 -0.0000000000000084  8.0818483708211897  4.0409241854105460
 -0.0000000000000119 10.1023104635264858  6.0613862781158234
  2.0204620927052894  8.0818483708211843  6.0613862781158261
  2.0204620927052912 10.1023104635264893  4.0409241854105371
 -0.0000000000000140  8.0818483708211755  8.0818483708211151
 -0.0000000000000174 10.1023104635264716 10.1023104635263934
  2.0204620927052837  8.0818483708211701 10.1023104635263969
  2.0204620927052854 10.1023104635264751  8.0818483708211062
  4.0409241854106011 -0.0000000000000015 -0.0000000000000055
  4.0409241854105975  2.0204620927052925  2.0204620927052734
  6.0613862781158971 -0.0000000000000080  2.0204620927052765
  6.0613862781158989  2.0204620927052983 -0.0000000000000141
  4.0409241854105957 -0.0000000000000132  4.0409241854105638
  4.0409241854105922  2.0204620927052810  6.0613862781158403
  6.0613862781158918 -0.0000000000000197  6.0613862781158439
  6.0613862781158936  2.0204620927052868  4.0409241854105549
  4.0409241854105904 -0.0000000000000248  8.0818483708211311
  4.0409241854105860  2.0204620927052694 10.1023104635264112
  6.0613862781158856 -0.0000000000000314 10.1023104635264147
  6.0613862781158883  2.0204620927052752  8.0818483708211240
  4.0409241854105993  4.0409241854105993 -0.0000000000000172
  4.0409241854105966  6.0613862781158927  2.0204620927052614
  6.0613862781158954  4.0409241854105931  2.0204620927052646
  6.0613862781158980  6.0613862781158963 -0.0000000000000258
  4.0409241854105939  4.0409241854105868  4.0409241854105513
  4.0409241854105913  6.0613862781158803  6.0613862781158296
  6.0613862781158900  4.0409241854105806  6.0613862781158314
  6.0613862781158927  6.0613862781158838  4.0409241854105433
  4.0409241854105886  4.0409241854105762  8.0818483708211204
  4.0409241854105851  6.0613862781158687 10.1023104635264005
  6.0613862781158838  4.0409241854105691 10.1023104635264040
  6.0613862781158874  6.0613862781158732  8.0818483708211133
  4.0409241854105984  8.0818483708211986 -0.0000000000000289
  4.0409241854105948 10.1023104635264946  2.0204620927052499
  6.0613862781158945  8.0818483708211932  2.0204620927052526
  6.0613862781158963 10.1023104635264982 -0.0000000000000375
  4.0409241854105931  8.0818483708211879  4.0409241854105398
  4.0409241854105895 10.1023104635264840  6.0613862781158172
  6.0613862781158891  8.0818483708211826  6.0613862781158208
  6.0613862781158909 10.1023104635264875  4.0409241854105309
  4.0409241854105877  8.0818483708211737  8.0818483708211097
  4.0409241854105833 10.1023104635264698 10.1023104635263881
  6.0613862781158829  8.0818483708211684 10.1023104635263916
  6.0613862781158856 10.1023104635264733  8.0818483708210991
  8.0818483708212021 -0.0000000000000029 -0.0000000000000110
  8.0818483708211986  2.0204620927052912  2.0204620927052677
 10.1023104635265000 -0.0000000000000095  2.0204620927052708
 10.1023104635265000  2.0204620927052965 -0.0000000000000196
  8.0818483708211968 -0.0000000000000146  4.0409241854105575
  8.0818483708211915  2.0204620927052797  6.0613862781158350
 10.1023104635264929 -0.0000000000000212  6.0613862781158385
 10.1023104635264946  2.0204620927052850  4.0409241854105495
  8.0818483708211915 -0.0000000000000263  8.0818483708211275
  8.0818483708211861  2.0204620927052681 10.1023104635264076
 10.1023104635264875 -0.0000000000000329 10.1023104635264076
 10.1023104635264893  2.0204620927052734  8.0818483708211186
  8.0818483708212003  4.0409241854105975 -0.0000000000000227
  8.0818483708211968  6.0613862781158909  2.0204620927052557
 10.1023104635264982  4.0409241854105913  2.0204620927052592
 10.1023104635264982  6.0613862781158954 -0.0000000000000313
  8.0818483708211950  4.0409241854105851  4.0409241854105469
  8.0818483708211897  6.0613862781158785  6.0613862781158234
 10.1023104635264911  4.0409241854105789  6.0613862781158270
 10.1023104635264929  6.0613862781158829  4.0409241854105380
  8.0818483708211897  4.0409241854105744  8.0818483708211151
  8.0818483708211843  6.0613862781158669 10.1023104635263934
 10.1023104635264858  4.0409241854105673 10.1023104635263969
 10.1023104635264875  6.0613862781158723  8.0818483708211062
  8.0818483708211986  8.0818483708211986 -0.0000000000000344
  8.0818483708211968 10.1023104635264929  2.0204620927052441
 10.1023104635264964  8.0818483708211915  2.0204620927052472
 10.1023104635264982 10.1023104635264964 -0.0000000000000430
  8.0818483708211932  8.0818483708211879  4.0409241854105344
  8.0818483708211897 10.1023104635264822  6.0613862781158119
 10.1023104635264893  8.0818483708211808  6.0613862781158145
 10.1023104635264929 10.1023104635264858  4.0409241854105264
  8.0818483708211879  8.0818483708211737  8.0818483708211026
  8.0818483708211843 10.1023104635264680 10.1023104635263827
 10.1023104635264840  8.0818483708211666 10.1023104635263863
 10.1023104635264875 10.1023104635264716  8.0818483708210955
