&CONTROL
  calculation = 'scf'
  outdir = './out/'
  prefix = 'aiida'
  pseudo_dir = '/users/aglensk/Dropbox/Albert/scripts/dotfiles/scripts/potentials/quantum_espresso/pseudo_SSSPefV1.1_alalloy'
  tprnfor = .true.             	! calculate the pressure of the cell
  tstress = .true.
  verbosity = 'high'
  wf_collect = .true.
  etot_conv_thr = 2.5d-4    ! EDIFFG positive atomic units
  forc_conv_thr = 2.0d-5
/
&SYSTEM
  degauss =   4.4100000000d-02  ! SIGMA in Rydberg  so, 0.60001101eV
  ecutrho = 400                 ! AUGMENTATION charges
  ecutwfc =  40                 ! ENCUT in Rydberg, so 544eV
  ibrav = 0                     ! no symmetry
   nat              = 22
   ntyp             = 2
  occupations = 'smearing'      ! using smearing 
  smearing = 'mp'               ! methfessel paxton
  nosym= .true. 		! no symmetry
/
&ELECTRONS
  conv_thr =   1.0000000000d-12   	! EDIFF
  mixing_beta =   4.0000000000d-01      ! MIXING
  mixing_mode = 'local-TF'                 ! MIXING
/
&IONS
  !press_conv_thr = 0.05                 ! just for volume relaxations
/
ATOMIC_SPECIES
Mg 24.305 Mg.pbe-n-kjpaw_psl.0.3.0.UPF
Si 28.085 Si.pbe-n-rrkjus_psl.1.0.0.UPF

K_POINTS automatic
6 20 13 0 0 0
CELL_PARAMETERS angstrom
14.25993514698616 0.00000000000000 -5.15134434927108
0.00000000000000 4.08062993603626 0.00000000000000
0.00000000000000 0.00000000000000 6.92763772538841

ATOMIC_POSITIONS angstrom
Mg 0.0129531998 0.0000000000 6.8413627897 
Mg 1.1250609128 2.0403147034 2.0969213188 
Mg 2.2449914525 2.0403147034 5.5739330986 
Mg 4.9109550178 0.0000000000 -1.3951164478 
Mg 6.0308374024 0.0000000000 2.0819609499 
Si 0.8362703878 0.0000000000 4.2526336966 
Si 2.7587357389 0.0000000000 0.7087318007 
Si 2.9951033235 0.0000000000 3.2147917716 
Si 4.1607394281 2.0403147034 0.9640486921 
Si 4.3971175962 2.0403147034 3.4701054880 
Si 6.3195660137 2.0403147034 -0.0737884702 
Mg 7.1429948581 2.0403147034 4.2651355082 
Mg 8.2547120383 0.0000000000 -0.4794133857 
Mg 9.3748314942 0.0000000000 2.9978269986 
Mg 12.0410506522 2.0403147034 -3.9703525804 
Mg 13.1611219530 2.0403147034 -0.4930481657 
Si 7.9659971856 2.0403147034 1.6764386948 
Si 9.8887885099 2.0403147034 -1.8670996563 
Si 10.1249661199 2.0403147034 0.6389507895 
Si 11.2908112495 0.0000000000 -1.6114520291 
Si 11.5269999722 0.0000000000 0.8945952415 
Si 13.4497733044 0.0000000000 -2.6489372886 

