Al 
 1.0000000000000000
     4.0459774067823204    0.0000000000000000    0.0000000000000000
     0.0000000000000000    4.0459774067823204    0.0000000000000000
     0.0000000000000000    0.0000000000000000    4.0459774067823204
   4
Cartesian
  0.0000000000000000  0.0000000000000000  0.0000000000000000
  0.0000000000000000  2.0229887033911598  2.0229887033911598
  2.0229887033911598  0.0000000000000000  2.0229887033911598
  2.0229887033911598  2.0229887033911598  0.0000000000000000
