&CONTROL
  calculation = 'relax'
  max_seconds = 72000
  outdir = './out/'
  prefix = 'aiida'
  pseudo_dir = './pseudo/'
  restart_mode = 'from_scratch'
  verbosity = 'high'
  wf_collect = .true.
/
&SYSTEM
  degauss =   5.0000000000d-02
  ecutrho =   2.8000000000d+02
  ecutwfc =   3.5000000000d+01
  ibrav = 0
  nat = 256
  ntyp = 1
  occupations = 'smearing'
  smearing = 'gauss'
/
&ELECTRONS
  conv_thr =   1.0000000000d-06
  mixing_beta =   7.0000000000d-01
  mixing_mode = 'plain'
/
&IONS
/
ATOMIC_SPECIES
Al     26.981538 Al.pbe-n-rrkjus_psl.1.0.0.UPF
ATOMIC_POSITIONS angstrom
Al           0.0000000000       0.0000000000       0.0000000000 
Al           2.0285000000       2.0285000000       0.0000000000 
Al           2.0285000000       0.0000000000       2.0285000000 
Al           0.0000000000       2.0285000000       2.0285000000 
Al           0.0000000000       0.0000000000       4.0570000000 
Al           2.0285000000       2.0285000000       4.0570000000 
Al           2.0285000000       0.0000000000       6.0855000000 
Al           0.0000000000       2.0285000000       6.0855000000 
Al           0.0000000000       0.0000000000       8.1140000000 
Al           2.0285000000       2.0285000000       8.1140000000 
Al           2.0285000000       0.0000000000      10.1425000000 
Al           0.0000000000       2.0285000000      10.1425000000 
Al           0.0000000000       0.0000000000      12.1710000000 
Al           2.0285000000       2.0285000000      12.1710000000 
Al           2.0285000000       0.0000000000      14.1995000000 
Al           0.0000000000       2.0285000000      14.1995000000 
Al           0.0000000000       4.0570000000       0.0000000000 
Al           2.0285000000       6.0855000000       0.0000000000 
Al           2.0285000000       4.0570000000       2.0285000000 
Al           0.0000000000       6.0855000000       2.0285000000 
Al           0.0000000000       4.0570000000       4.0570000000 
Al           2.0285000000       6.0855000000       4.0570000000 
Al           2.0285000000       4.0570000000       6.0855000000 
Al           0.0000000000       6.0855000000       6.0855000000 
Al           0.0000000000       4.0570000000       8.1140000000 
Al           2.0285000000       6.0855000000       8.1140000000 
Al           2.0285000000       4.0570000000      10.1425000000 
Al           0.0000000000       6.0855000000      10.1425000000 
Al           0.0000000000       4.0570000000      12.1710000000 
Al           2.0285000000       6.0855000000      12.1710000000 
Al           2.0285000000       4.0570000000      14.1995000000 
Al           0.0000000000       6.0855000000      14.1995000000 
Al           0.0000000000       8.1140000000       0.0000000000 
Al           2.0285000000      10.1425000000       0.0000000000 
Al           2.0285000000       8.1140000000       2.0285000000 
Al           0.0000000000      10.1425000000       2.0285000000 
Al           0.0000000000       8.1140000000       4.0570000000 
Al           2.0285000000      10.1425000000       4.0570000000 
Al           2.0285000000       8.1140000000       6.0855000000 
Al           0.0000000000      10.1425000000       6.0855000000 
Al           0.0000000000       8.1140000000       8.1140000000 
Al           2.0285000000      10.1425000000       8.1140000000 
Al           2.0285000000       8.1140000000      10.1425000000 
Al           0.0000000000      10.1425000000      10.1425000000 
Al           0.0000000000       8.1140000000      12.1710000000 
Al           2.0285000000      10.1425000000      12.1710000000 
Al           2.0285000000       8.1140000000      14.1995000000 
Al           0.0000000000      10.1425000000      14.1995000000 
Al           0.0000000000      12.1710000000       0.0000000000 
Al           2.0285000000      14.1995000000       0.0000000000 
Al           2.0285000000      12.1710000000       2.0285000000 
Al           0.0000000000      14.1995000000       2.0285000000 
Al           0.0000000000      12.1710000000       4.0570000000 
Al           2.0285000000      14.1995000000       4.0570000000 
Al           2.0285000000      12.1710000000       6.0855000000 
Al           0.0000000000      14.1995000000       6.0855000000 
Al           0.0000000000      12.1710000000       8.1140000000 
Al           2.0285000000      14.1995000000       8.1140000000 
Al           2.0285000000      12.1710000000      10.1425000000 
Al           0.0000000000      14.1995000000      10.1425000000 
Al           0.0000000000      12.1710000000      12.1710000000 
Al           2.0285000000      14.1995000000      12.1710000000 
Al           2.0285000000      12.1710000000      14.1995000000 
Al           0.0000000000      14.1995000000      14.1995000000 
Al           4.0570000000       0.0000000000       0.0000000000 
Al           6.0855000000       2.0285000000       0.0000000000 
Al           6.0855000000       0.0000000000       2.0285000000 
Al           4.0570000000       2.0285000000       2.0285000000 
Al           4.0570000000       0.0000000000       4.0570000000 
Al           6.0855000000       2.0285000000       4.0570000000 
Al           6.0855000000       0.0000000000       6.0855000000 
Al           4.0570000000       2.0285000000       6.0855000000 
Al           4.0570000000       0.0000000000       8.1140000000 
Al           6.0855000000       2.0285000000       8.1140000000 
Al           6.0855000000       0.0000000000      10.1425000000 
Al           4.0570000000       2.0285000000      10.1425000000 
Al           4.0570000000       0.0000000000      12.1710000000 
Al           6.0855000000       2.0285000000      12.1710000000 
Al           6.0855000000       0.0000000000      14.1995000000 
Al           4.0570000000       2.0285000000      14.1995000000 
Al           4.0570000000       4.0570000000       0.0000000000 
Al           6.0855000000       6.0855000000       0.0000000000 
Al           6.0855000000       4.0570000000       2.0285000000 
Al           4.0570000000       6.0855000000       2.0285000000 
Al           4.0570000000       4.0570000000       4.0570000000 
Al           6.0855000000       6.0855000000       4.0570000000 
Al           6.0855000000       4.0570000000       6.0855000000 
Al           4.0570000000       6.0855000000       6.0855000000 
Al           4.0570000000       4.0570000000       8.1140000000 
Al           6.0855000000       6.0855000000       8.1140000000 
Al           6.0855000000       4.0570000000      10.1425000000 
Al           4.0570000000       6.0855000000      10.1425000000 
Al           4.0570000000       4.0570000000      12.1710000000 
Al           6.0855000000       6.0855000000      12.1710000000 
Al           6.0855000000       4.0570000000      14.1995000000 
Al           4.0570000000       6.0855000000      14.1995000000 
Al           4.0570000000       8.1140000000       0.0000000000 
Al           6.0855000000      10.1425000000       0.0000000000 
Al           6.0855000000       8.1140000000       2.0285000000 
Al           4.0570000000      10.1425000000       2.0285000000 
Al           4.0570000000       8.1140000000       4.0570000000 
Al           6.0855000000      10.1425000000       4.0570000000 
Al           6.0855000000       8.1140000000       6.0855000000 
Al           4.0570000000      10.1425000000       6.0855000000 
Al           4.0570000000       8.1140000000       8.1140000000 
Al           6.0855000000      10.1425000000       8.1140000000 
Al           6.0855000000       8.1140000000      10.1425000000 
Al           4.0570000000      10.1425000000      10.1425000000 
Al           4.0570000000       8.1140000000      12.1710000000 
Al           6.0855000000      10.1425000000      12.1710000000 
Al           6.0855000000       8.1140000000      14.1995000000 
Al           4.0570000000      10.1425000000      14.1995000000 
Al           4.0570000000      12.1710000000       0.0000000000 
Al           6.0855000000      14.1995000000       0.0000000000 
Al           6.0855000000      12.1710000000       2.0285000000 
Al           4.0570000000      14.1995000000       2.0285000000 
Al           4.0570000000      12.1710000000       4.0570000000 
Al           6.0855000000      14.1995000000       4.0570000000 
Al           6.0855000000      12.1710000000       6.0855000000 
Al           4.0570000000      14.1995000000       6.0855000000 
Al           4.0570000000      12.1710000000       8.1140000000 
Al           6.0855000000      14.1995000000       8.1140000000 
Al           6.0855000000      12.1710000000      10.1425000000 
Al           4.0570000000      14.1995000000      10.1425000000 
Al           4.0570000000      12.1710000000      12.1710000000 
Al           6.0855000000      14.1995000000      12.1710000000 
Al           6.0855000000      12.1710000000      14.1995000000 
Al           4.0570000000      14.1995000000      14.1995000000 
Al           8.1140000000       0.0000000000       0.0000000000 
Al          10.1425000000       2.0285000000       0.0000000000 
Al          10.1425000000       0.0000000000       2.0285000000 
Al           8.1140000000       2.0285000000       2.0285000000 
Al           8.1140000000       0.0000000000       4.0570000000 
Al          10.1425000000       2.0285000000       4.0570000000 
Al          10.1425000000       0.0000000000       6.0855000000 
Al           8.1140000000       2.0285000000       6.0855000000 
Al           8.1140000000       0.0000000000       8.1140000000 
Al          10.1425000000       2.0285000000       8.1140000000 
Al          10.1425000000       0.0000000000      10.1425000000 
Al           8.1140000000       2.0285000000      10.1425000000 
Al           8.1140000000       0.0000000000      12.1710000000 
Al          10.1425000000       2.0285000000      12.1710000000 
Al          10.1425000000       0.0000000000      14.1995000000 
Al           8.1140000000       2.0285000000      14.1995000000 
Al           8.1140000000       4.0570000000       0.0000000000 
Al          10.1425000000       6.0855000000       0.0000000000 
Al          10.1425000000       4.0570000000       2.0285000000 
Al           8.1140000000       6.0855000000       2.0285000000 
Al           8.1140000000       4.0570000000       4.0570000000 
Al          10.1425000000       6.0855000000       4.0570000000 
Al          10.1425000000       4.0570000000       6.0855000000 
Al           8.1140000000       6.0855000000       6.0855000000 
Al           8.1140000000       4.0570000000       8.1140000000 
Al          10.1425000000       6.0855000000       8.1140000000 
Al          10.1425000000       4.0570000000      10.1425000000 
Al           8.1140000000       6.0855000000      10.1425000000 
Al           8.1140000000       4.0570000000      12.1710000000 
Al          10.1425000000       6.0855000000      12.1710000000 
Al          10.1425000000       4.0570000000      14.1995000000 
Al           8.1140000000       6.0855000000      14.1995000000 
Al           8.1140000000       8.1140000000       0.0000000000 
Al          10.1425000000      10.1425000000       0.0000000000 
Al          10.1425000000       8.1140000000       2.0285000000 
Al           8.1140000000      10.1425000000       2.0285000000 
Al           8.1140000000       8.1140000000       4.0570000000 
Al          10.1425000000      10.1425000000       4.0570000000 
Al          10.1425000000       8.1140000000       6.0855000000 
Al           8.1140000000      10.1425000000       6.0855000000 
Al           8.1140000000       8.1140000000       8.1140000000 
Al          10.1425000000      10.1425000000       8.1140000000 
Al          10.1425000000       8.1140000000      10.1425000000 
Al           8.1140000000      10.1425000000      10.1425000000 
Al           8.1140000000       8.1140000000      12.1710000000 
Al          10.1425000000      10.1425000000      12.1710000000 
Al          10.1425000000       8.1140000000      14.1995000000 
Al           8.1140000000      10.1425000000      14.1995000000 
Al           8.1140000000      12.1710000000       0.0000000000 
Al          10.1425000000      14.1995000000       0.0000000000 
Al          10.1425000000      12.1710000000       2.0285000000 
Al           8.1140000000      14.1995000000       2.0285000000 
Al           8.1140000000      12.1710000000       4.0570000000 
Al          10.1425000000      14.1995000000       4.0570000000 
Al          10.1425000000      12.1710000000       6.0855000000 
Al           8.1140000000      14.1995000000       6.0855000000 
Al           8.1140000000      12.1710000000       8.1140000000 
Al          10.1425000000      14.1995000000       8.1140000000 
Al          10.1425000000      12.1710000000      10.1425000000 
Al           8.1140000000      14.1995000000      10.1425000000 
Al           8.1140000000      12.1710000000      12.1710000000 
Al          10.1425000000      14.1995000000      12.1710000000 
Al          10.1425000000      12.1710000000      14.1995000000 
Al           8.1140000000      14.1995000000      14.1995000000 
Al          12.1710000000       0.0000000000       0.0000000000 
Al          14.1995000000       2.0285000000       0.0000000000 
Al          14.1995000000       0.0000000000       2.0285000000 
Al          12.1710000000       2.0285000000       2.0285000000 
Al          12.1710000000       0.0000000000       4.0570000000 
Al          14.1995000000       2.0285000000       4.0570000000 
Al          14.1995000000       0.0000000000       6.0855000000 
Al          12.1710000000       2.0285000000       6.0855000000 
Al          12.1710000000       0.0000000000       8.1140000000 
Al          14.1995000000       2.0285000000       8.1140000000 
Al          14.1995000000       0.0000000000      10.1425000000 
Al          12.1710000000       2.0285000000      10.1425000000 
Al          12.1710000000       0.0000000000      12.1710000000 
Al          14.1995000000       2.0285000000      12.1710000000 
Al          14.1995000000       0.0000000000      14.1995000000 
Al          12.1710000000       2.0285000000      14.1995000000 
Al          12.1710000000       4.0570000000       0.0000000000 
Al          14.1995000000       6.0855000000       0.0000000000 
Al          14.1995000000       4.0570000000       2.0285000000 
Al          12.1710000000       6.0855000000       2.0285000000 
Al          12.1710000000       4.0570000000       4.0570000000 
Al          14.1995000000       6.0855000000       4.0570000000 
Al          14.1995000000       4.0570000000       6.0855000000 
Al          12.1710000000       6.0855000000       6.0855000000 
Al          12.1710000000       4.0570000000       8.1140000000 
Al          14.1995000000       6.0855000000       8.1140000000 
Al          14.1995000000       4.0570000000      10.1425000000 
Al          12.1710000000       6.0855000000      10.1425000000 
Al          12.1710000000       4.0570000000      12.1710000000 
Al          14.1995000000       6.0855000000      12.1710000000 
Al          14.1995000000       4.0570000000      14.1995000000 
Al          12.1710000000       6.0855000000      14.1995000000 
Al          12.1710000000       8.1140000000       0.0000000000 
Al          14.1995000000      10.1425000000       0.0000000000 
Al          14.1995000000       8.1140000000       2.0285000000 
Al          12.1710000000      10.1425000000       2.0285000000 
Al          12.1710000000       8.1140000000       4.0570000000 
Al          14.1995000000      10.1425000000       4.0570000000 
Al          14.1995000000       8.1140000000       6.0855000000 
Al          12.1710000000      10.1425000000       6.0855000000 
Al          12.1710000000       8.1140000000       8.1140000000 
Al          14.1995000000      10.1425000000       8.1140000000 
Al          14.1995000000       8.1140000000      10.1425000000 
Al          12.1710000000      10.1425000000      10.1425000000 
Al          12.1710000000       8.1140000000      12.1710000000 
Al          14.1995000000      10.1425000000      12.1710000000 
Al          14.1995000000       8.1140000000      14.1995000000 
Al          12.1710000000      10.1425000000      14.1995000000 
Al          12.1710000000      12.1710000000       0.0000000000 
Al          14.1995000000      14.1995000000       0.0000000000 
Al          14.1995000000      12.1710000000       2.0285000000 
Al          12.1710000000      14.1995000000       2.0285000000 
Al          12.1710000000      12.1710000000       4.0570000000 
Al          14.1995000000      14.1995000000       4.0570000000 
Al          14.1995000000      12.1710000000       6.0855000000 
Al          12.1710000000      14.1995000000       6.0855000000 
Al          12.1710000000      12.1710000000       8.1140000000 
Al          14.1995000000      14.1995000000       8.1140000000 
Al          14.1995000000      12.1710000000      10.1425000000 
Al          12.1710000000      14.1995000000      10.1425000000 
Al          12.1710000000      12.1710000000      12.1710000000 
Al          14.1995000000      14.1995000000      12.1710000000 
Al          14.1995000000      12.1710000000      14.1995000000 
Al          12.1710000000      14.1995000000      14.1995000000 
K_POINTS automatic
3 3 3 0 0 0
CELL_PARAMETERS angstrom
     16.2280000000       0.0000000000       0.0000000000
      0.0000000000      16.2280000000       0.0000000000
      0.0000000000       0.0000000000      16.2280000000
