Al 
 1.0000000000000000
     4.0402671972464876    0.0000000000000000    0.0000000000000000
     0.0000000000000000    4.0402671972464876    0.0000000000000000
     0.0000000000000000    0.0000000000000000    4.0402671972464876
   4
Cartesian
  0.0000000000000000  0.0000000000000000  0.0000000000000000
  0.0000000000000000  2.0201335986232434  2.0201335986232434
  2.0201335986232434  0.0000000000000000  2.0201335986232434
  2.0201335986232434  2.0201335986232434  0.0000000000000000
