Al 
 1.0000000000000000
     4.0402671972464876    0.0000000000000000    0.0000000000000000
     0.0000000000000000    4.0402671972464876    0.0000000000000000
     0.0000000000000000    0.0000000000000000    4.0402671972464876
   4
Direct
  0.0000000000000000  0.0000000000000000  0.0000000000000000
  0.0000000000000000  0.4999999999999999  0.4999999999999999
  0.4999999999999999  0.0000000000000000  0.4999999999999999
  0.4999999999999999  0.4999999999999999  0.0000000000000000
