&CONTROL
  calculation = 'scf'
  outdir = './out/'
  prefix = 'aiida'
  pseudo_dir = '/users/aglensk/Dropbox/Albert/scripts/dotfiles/scripts/potentials/quantum_espresso/pseudo_SSSPefV1.1_alalloy'
  tprnfor = .true.             	! calculate the pressure of the cell
  tstress = .true.
  verbosity = 'high'
  wf_collect = .true.
  etot_conv_thr = 2.5d-4    ! EDIFFG positive atomic units
  forc_conv_thr = 2.0d-5
/
&SYSTEM
  degauss =   4.4100000000d-02  ! SIGMA in Rydberg  so, 0.60001101eV
  ecutrho = 400                 ! AUGMENTATION charges
  ecutwfc =  40                 ! ENCUT in Rydberg, so 544eV
  ibrav = 0                     ! no symmetry
   nat              = 256
   ntyp             = 2
  occupations = 'smearing'      ! using smearing 
  smearing = 'mp'               ! methfessel paxton
  nosym= .true. 		! no symmetry
/
&ELECTRONS
  conv_thr =   1.0000000000d-12   	! EDIFF
  mixing_beta =   4.0000000000d-01      ! MIXING
  mixing_mode = 'local-TF'                 ! MIXING
/
&IONS
  !press_conv_thr = 0.05                 ! just for volume relaxations
/
ATOMIC_SPECIES
Mg 24.305 Mg.pbe-n-kjpaw_psl.0.3.0.UPF
Al 26.9815385 Al.pbe-n-kjpaw_psl.1.0.0.UPF

K_POINTS automatic
5 5 5 0 0 0
CELL_PARAMETERS angstrom
16.22799863997135 0.00000000000000 0.00000000000000
0.00000000000000 16.22799863997135 0.00000000000000
0.00000000000000 0.00000000000000 16.22799863997135

ATOMIC_POSITIONS angstrom
Mg 0.0000000000 0.0071772305 0.0000000000 
Al 2.0572700704 16.2189052588 2.0572700704 
Al 2.0864314390 2.0284997638 0.0000000000 
Al 0.0000000000 2.0284997638 2.0864314390 
Al 0.0000000000 16.2197106665 4.0681789254 
Al 2.0375820323 2.0284997638 4.0775554164 
Al 2.0287627649 16.2268212207 6.0899332674 
Al 0.0000000000 2.0284997638 6.0917097153 
Al 0.0000000000 16.2271471938 8.1139995846 
Al 2.0293395681 2.0284997638 8.1139995846 
Al 2.0287627649 16.2268212207 10.1380653726 
Al 0.0000000000 2.0284997638 10.1362894539 
Al 0.0000000000 16.2197106665 12.1598202437 
Al 2.0375820323 2.0284997638 12.1504432235 
Al 2.0572700704 16.2189052588 14.1707285695 
Al 0.0000000000 2.0284997638 14.1415677302 
Mg 0.0000000000 4.0498228264 0.0000000000 
Al 2.0530398278 6.1120470538 0.0000000000 
Al 2.0572700704 4.0660934381 2.0572700704 
Al 0.0000000000 6.1120470538 2.0530398278 
Al 0.0000000000 4.0652875012 4.0681789254 
Al 2.0326358129 6.0909540502 4.0679757214 
Al 2.0287627649 4.0581769470 6.0899332674 
Al 0.0000000000 6.0871005818 6.0900533906 
Al 0.0000000000 4.0578509738 8.1139995846 
Al 2.0292231491 6.0862803571 8.1139995846 
Al 2.0287627649 4.0581769470 10.1380653726 
Al 0.0000000000 6.0871005818 10.1379457785 
Al 0.0000000000 4.0652875012 12.1598202437 
Al 2.0326358129 6.0909540502 12.1600229186 
Al 2.0572700704 4.0660934381 14.1707285695 
Al 0.0000000000 6.1120470538 14.1749588122 
Al 0.0000000000 8.1155733576 0.0000000000 
Al 2.0285749070 10.1424993484 0.0000000000 
Al 2.0331554649 8.1239184822 2.0331554649 
Al 0.0000000000 10.1424993484 2.0285749070 
Al 0.0000000000 8.1215096675 4.0652483421 
Al 2.0286161828 10.1424993484 4.0592231303 
Al 2.0289114637 8.1151934084 6.0871884252 
Al 0.0000000000 10.1424993484 6.0881790449 
Al 0.0000000000 8.1149325240 8.1139995846 
Al 2.0290141241 10.1424993484 8.1139995846 
Al 2.0289114637 8.1151934084 10.1408102148 
Al 0.0000000000 10.1424993484 10.1398195950 
Al 0.0000000000 8.1215096675 12.1627508271 
Al 2.0286161828 10.1424993484 12.1687760388 
Al 2.0331554649 8.1239184822 14.1948431750 
Al 0.0000000000 10.1424993484 14.1994237330 
Al 0.0000000000 12.1694248101 0.0000000000 
Al 2.0530398278 14.1729511138 0.0000000000 
Al 2.0331554649 12.1610802146 2.0331554649 
Al 0.0000000000 14.1729511138 2.0530398278 
Al 0.0000000000 12.1634890293 4.0652483421 
Al 2.0326358129 14.1940446466 4.0679757214 
Al 2.0289114637 12.1698052885 6.0871884252 
Al 0.0000000000 14.1978975859 6.0900533906 
Al 0.0000000000 12.1700661729 8.1139995846 
Al 2.0292231491 14.1987183397 8.1139995846 
Al 2.0289114637 12.1698052885 10.1408102148 
Al 0.0000000000 14.1978975859 10.1379457785 
Al 0.0000000000 12.1634890293 12.1627508271 
Al 2.0326358129 14.1940446466 12.1600229186 
Al 2.0331554649 12.1610802146 14.1948431750 
Al 0.0000000000 14.1729511138 14.1749588122 
Al 4.0681789254 16.2197106665 0.0000000000 
Al 6.0917097153 2.0284997638 0.0000000000 
Al 6.0899332674 16.2268212207 2.0287627649 
Al 4.0775554164 2.0284997638 2.0375820323 
Al 4.0654118578 16.2272879550 4.0654118578 
Al 6.0882446629 2.0284997638 4.0594300386 
Al 6.0866835901 0.0000904893 6.0866835901 
Al 4.0594300386 2.0284997638 6.0882446629 
Al 4.0582219271 16.2276615541 8.1139995846 
Al 6.0860946159 2.0284997638 8.1139995846 
Al 6.0866835901 0.0000904893 10.1413155790 
Al 4.0594300386 2.0284997638 10.1397539771 
Al 4.0654118578 16.2272879550 12.1625867822 
Al 6.0882446629 2.0284997638 12.1685686013 
Al 6.0899332674 16.2268212207 14.1992358750 
Al 4.0775554164 2.0284997638 14.1904171368 
Al 4.0681789254 4.0652875012 0.0000000000 
Al 6.0900533906 6.0871005818 0.0000000000 
Al 6.0899332674 4.0581769470 2.0287627649 
Al 4.0679757214 6.0909540502 2.0326358129 
Al 4.0654118578 4.0577107419 4.0654118578 
Al 6.0865989218 6.0854490197 4.0579536342 
Al 6.0866835901 4.0569090384 6.0866835901 
Al 4.0579536342 6.0854490197 6.0865989218 
Al 4.0582219271 4.0573366136 8.1139995846 
Al 6.0860094184 6.0859406253 8.1139995846 
Al 6.0866835901 4.0569090384 10.1413155790 
Al 4.0579536342 6.0854490197 10.1413997182 
Al 4.0654118578 4.0577107419 12.1625867822 
Al 6.0865989218 6.0854490197 12.1700450058 
Al 6.0899332674 4.0581769470 14.1992358750 
Al 4.0679757214 6.0909540502 14.1953628270 
Al 4.0652483421 8.1215096675 0.0000000000 
Al 6.0881790449 10.1424993484 0.0000000000 
Al 6.0871884252 8.1151934084 2.0289114637 
Al 4.0592231303 10.1424993484 2.0286161828 
Al 4.0581346128 8.1147832960 4.0581346128 
Al 6.0852230610 10.1424993484 4.0567254139 
Al 6.0855686138 8.1138773446 6.0855686138 
Al 4.0567254139 10.1424993484 6.0852230610 
Al 4.0578536197 8.1143287328 8.1139995846 
Al 6.0858808283 10.1424993484 8.1139995846 
Al 6.0855686138 8.1138773446 10.1424305554 
Al 4.0567254139 10.1424993484 10.1427761081 
Al 4.0581346128 8.1147832960 12.1698640272 
Al 6.0852230610 10.1424993484 12.1712732261 
Al 6.0871884252 8.1151934084 14.1990877054 
Al 4.0592231303 10.1424993484 14.1993824571 
Al 4.0652483421 12.1634890293 0.0000000000 
Al 6.0900533906 14.1978975859 0.0000000000 
Al 6.0871884252 12.1698052885 2.0289114637 
Al 4.0679757214 14.1940446466 2.0326358129 
Al 4.0581346128 12.1702148716 4.0581346128 
Al 6.0865989218 14.1995491480 4.0579536342 
Al 6.0855686138 12.1711213522 6.0855686138 
Al 4.0579536342 14.1995491480 6.0865989218 
Al 4.0578536197 12.1706694349 8.1139995846 
Al 6.0860094184 14.1990575423 8.1139995846 
Al 6.0855686138 12.1711213522 10.1424305554 
Al 4.0579536342 14.1995491480 10.1413997182 
Al 4.0581346128 12.1702148716 12.1698640272 
Al 6.0865989218 14.1995491480 12.1700450058 
Al 6.0871884252 12.1698052885 14.1990877054 
Al 4.0679757214 14.1940446466 14.1953628270 
Al 8.1139995846 16.2271471938 0.0000000000 
Al 10.1362894539 2.0284997638 0.0000000000 
Al 10.1380653726 16.2268212207 2.0287627649 
Al 8.1139995846 2.0284997638 2.0293395681 
Al 8.1139995846 16.2276615541 4.0582219271 
Al 10.1397539771 2.0284997638 4.0594300386 
Al 10.1413155790 0.0000904893 6.0866835901 
Al 8.1139995846 2.0284997638 6.0860946159 
Al 8.1139995846 16.2275715940 8.1139995846 
Al 10.1419045532 2.0284997638 8.1139995846 
Al 10.1413155790 0.0000904893 10.1413155790 
Al 8.1139995846 2.0284997638 10.1419045532 
Al 8.1139995846 16.2276615541 12.1697767129 
Al 10.1397539771 2.0284997638 12.1685686013 
Al 10.1380653726 16.2268212207 14.1992358750 
Al 8.1139995846 2.0284997638 14.1986590719 
Al 8.1139995846 4.0578509738 0.0000000000 
Al 10.1379457785 6.0871005818 0.0000000000 
Al 10.1380653726 4.0581769470 2.0287627649 
Al 8.1139995846 6.0862803571 2.0292231491 
Al 8.1139995846 4.0573366136 4.0582219271 
Al 10.1413997182 6.0854490197 4.0579536342 
Al 10.1413155790 4.0569090384 6.0866835901 
Al 8.1139995846 6.0859406253 6.0860094184 
Al 8.1139995846 4.0574271029 8.1139995846 
Al 10.1419892216 6.0859406253 8.1139995846 
Al 10.1413155790 4.0569090384 10.1413155790 
Al 8.1139995846 6.0859406253 10.1419892216 
Al 8.1139995846 4.0573366136 12.1697767129 
Al 10.1413997182 6.0854490197 12.1700450058 
Al 10.1380653726 4.0581769470 14.1992358750 
Al 8.1139995846 6.0862803571 14.1987754909 
Al 8.1139995846 8.1149325240 0.0000000000 
Al 10.1398195950 10.1424993484 0.0000000000 
Al 10.1408102148 8.1151934084 2.0289114637 
Al 8.1139995846 10.1424993484 2.0290141241 
Al 8.1139995846 8.1143287328 4.0578536197 
Al 10.1427761081 10.1424993484 4.0567254139 
Al 10.1424305554 8.1138773446 6.0855686138 
Al 8.1139995846 10.1424993484 6.0858808283 
Al 8.1139995846 8.1145012446 8.1139995846 
Al 10.1421178117 10.1424993484 8.1139995846 
Al 10.1424305554 8.1138773446 10.1424305554 
Al 8.1139995846 10.1424993484 10.1421178117 
Al 8.1139995846 8.1143287328 12.1701450203 
Al 10.1427761081 10.1424993484 12.1712732261 
Al 10.1408102148 8.1151934084 14.1990877054 
Al 8.1139995846 10.1424993484 14.1989845159 
Al 8.1139995846 12.1700661729 0.0000000000 
Al 10.1379457785 14.1978975859 0.0000000000 
Al 10.1408102148 12.1698052885 2.0289114637 
Al 8.1139995846 14.1987183397 2.0292231491 
Al 8.1139995846 12.1706694349 4.0578536197 
Al 10.1413997182 14.1995491480 4.0579536342 
Al 10.1424305554 12.1711213522 6.0855686138 
Al 8.1139995846 14.1990575423 6.0860094184 
Al 8.1139995846 12.1704974523 8.1139995846 
Al 10.1419892216 14.1990575423 8.1139995846 
Al 10.1424305554 12.1711213522 10.1424305554 
Al 8.1139995846 14.1990575423 10.1419892216 
Al 8.1139995846 12.1706694349 12.1701450203 
Al 10.1413997182 14.1995491480 12.1700450058 
Al 10.1408102148 12.1698052885 14.1990877054 
Al 8.1139995846 14.1987183397 14.1987754909 
Al 12.1598202437 16.2197106665 0.0000000000 
Al 14.1415677302 2.0284997638 0.0000000000 
Al 14.1707285695 16.2189052588 2.0572700704 
Al 12.1504432235 2.0284997638 2.0375820323 
Al 12.1625867822 16.2272879550 4.0654118578 
Al 14.1904171368 2.0284997638 4.0775554164 
Al 14.1992358750 16.2268212207 6.0899332674 
Al 12.1685686013 2.0284997638 6.0882446629 
Al 12.1697767129 16.2276615541 8.1139995846 
Al 14.1986590719 2.0284997638 8.1139995846 
Al 14.1992358750 16.2268212207 10.1380653726 
Al 12.1685686013 2.0284997638 10.1397539771 
Al 12.1625867822 16.2272879550 12.1625867822 
Al 14.1904171368 2.0284997638 12.1504432235 
Al 14.1707285695 16.2189052588 14.1707285695 
Al 12.1504432235 2.0284997638 14.1904171368 
Al 12.1598202437 4.0652875012 0.0000000000 
Al 14.1749588122 6.1120470538 0.0000000000 
Al 14.1707285695 4.0660934381 2.0572700704 
Al 12.1600229186 6.0909540502 2.0326358129 
Al 12.1625867822 4.0577107419 4.0654118578 
Al 14.1953628270 6.0909540502 4.0679757214 
Al 14.1992358750 4.0581769470 6.0899332674 
Al 12.1700450058 6.0854490197 6.0865989218 
Al 12.1697767129 4.0573366136 8.1139995846 
Al 14.1987754909 6.0862803571 8.1139995846 
Al 14.1992358750 4.0581769470 10.1380653726 
Al 12.1700450058 6.0854490197 10.1413997182 
Al 12.1625867822 4.0577107419 12.1625867822 
Al 14.1953628270 6.0909540502 12.1600229186 
Al 14.1707285695 4.0660934381 14.1707285695 
Al 12.1600229186 6.0909540502 14.1953628270 
Al 12.1627508271 8.1215096675 0.0000000000 
Al 14.1994237330 10.1424993484 0.0000000000 
Al 14.1948431750 8.1239184822 2.0331554649 
Al 12.1687760388 10.1424993484 2.0286161828 
Al 12.1698640272 8.1147832960 4.0581346128 
Al 14.1993824571 10.1424993484 4.0592231303 
Al 14.1990877054 8.1151934084 6.0871884252 
Al 12.1712732261 10.1424993484 6.0852230610 
Al 12.1701450203 8.1143287328 8.1139995846 
Al 14.1989845159 10.1424993484 8.1139995846 
Al 14.1990877054 8.1151934084 10.1408102148 
Al 12.1712732261 10.1424993484 10.1427761081 
Al 12.1698640272 8.1147832960 12.1698640272 
Al 14.1993824571 10.1424993484 12.1687760388 
Al 14.1948431750 8.1239184822 14.1948431750 
Al 12.1687760388 10.1424993484 14.1993824571 
Al 12.1627508271 12.1634890293 0.0000000000 
Al 14.1749588122 14.1729511138 0.0000000000 
Al 14.1948431750 12.1610802146 2.0331554649 
Al 12.1600229186 14.1940446466 2.0326358129 
Al 12.1698640272 12.1702148716 4.0581346128 
Al 14.1953628270 14.1940446466 4.0679757214 
Al 14.1990877054 12.1698052885 6.0871884252 
Al 12.1700450058 14.1995491480 6.0865989218 
Al 12.1701450203 12.1706694349 8.1139995846 
Al 14.1987754909 14.1987183397 8.1139995846 
Al 14.1990877054 12.1698052885 10.1408102148 
Al 12.1700450058 14.1995491480 10.1413997182 
Al 12.1698640272 12.1702148716 12.1698640272 
Al 14.1953628270 14.1940446466 12.1600229186 
Al 14.1948431750 12.1610802146 14.1948431750 
Al 12.1600229186 14.1940446466 14.1953628270 

