&CONTROL
  calculation = 'scf'
  outdir = './out/'
  prefix = 'aiida'
  pseudo_dir = '/users/aglensk/Dropbox/Albert/scripts/dotfiles/scripts/potentials/quantum_espresso/pseudo_SSSPefV1.1_alalloy'
  tprnfor = .true.             	! calculate the pressure of the cell
  tstress = .true.
  verbosity = 'high'
  wf_collect = .true.
  etot_conv_thr = 2.5d-4    ! EDIFFG positive atomic units
  forc_conv_thr = 2.0d-5
/
&SYSTEM
  degauss =   4.4100000000d-02  ! SIGMA in Rydberg  so, 0.60001101eV
  ecutrho = 400                 ! AUGMENTATION charges
  ecutwfc =  40                 ! ENCUT in Rydberg, so 544eV
  ibrav = 0                     ! no symmetry
   nat              = 22
   ntyp             = 3
  occupations = 'smearing'      ! using smearing 
  smearing = 'mp'               ! methfessel paxton
  nosym= .true. 		! no symmetry
/
&ELECTRONS
  conv_thr =   1.0000000000d-12   	! EDIFF
  mixing_beta =   4.0000000000d-01      ! MIXING
  mixing_mode = 'local-TF'                 ! MIXING
/
&IONS
  !press_conv_thr = 0.05                 ! just for volume relaxations
/
ATOMIC_SPECIES
Mg 24.305 Mg.pbe-n-kjpaw_psl.0.3.0.UPF
Si 28.085 Si.pbe-n-rrkjus_psl.1.0.0.UPF
Al 26.9815385 Al.pbe-n-kjpaw_psl.1.0.0.UPF

K_POINTS automatic
6 20 13 0 0 0
CELL_PARAMETERS angstrom
14.74014494437047 0.00000000000000 -4.22319927257474
0.00000000000000 4.05429490297534 0.00000000000000
0.00000000000000 0.00000000000000 6.85084247023697

ATOMIC_POSITIONS angstrom
Mg 0.0207908434 0.0000000000 6.7666371466 
Mg 1.1166999128 2.0271477161 2.0622956664 
Mg 2.3029718119 2.0271477161 5.5198882300 
Mg 5.1087027205 0.0000000000 -0.9490983775 
Mg 6.2949513357 0.0000000000 2.5085391662 
Si 0.8722719009 0.0000000000 4.1800665673 
Si 2.7573402986 0.0000000000 0.6569999658 
Al 3.2161925037 0.0000000000 3.2274576282 
Al 4.1954502780 2.0271477161 1.3433549790 
Si 4.6543368797 2.0271477161 3.9137972952 
Si 6.5393497137 2.0271477161 0.3907550358 
Mg 7.3908635802 2.0271477161 4.6550375103 
Mg 8.4867726496 0.0000000000 -0.0493034407 
Mg 9.6730445487 0.0000000000 3.4082885937 
Mg 12.4787749281 2.0271477161 -3.0606980138 
Mg 13.6650235433 2.0271477161 0.3969390007 
Si 8.2423441085 2.0271477161 2.0684669310 
Si 10.1274130353 2.0271477161 -1.4545996705 
Al 10.5862652405 2.0271477161 1.1158579919 
Al 11.5655224856 0.0000000000 -0.7682451865 
Si 12.0244090873 0.0000000000 1.8021976589 
Si 13.9094224505 0.0000000000 -1.7208446005 

