&CONTROL
  calculation = 'relax'     	! SCF relax and VlumeCell relax
  outdir = './out/'
  prefix = 'aiida'
  pseudo_dir = '/users/aglensk/Dropbox/Albert/scripts/dotfiles/scripts/aiida-qe/qe_pseudopotentials'
  tprnfor = .true.             	! calculate the pressure of the cell
  tstress = .true.
  verbosity = 'high'
  wf_collect = .true.
  etot_conv_thr = 2.5d-4    ! EDIFFG positive atomic units
  forc_conv_thr = 1.0d-5    ! EDIFFG negative atomic units *51.422063 gives eV/ang
/
&SYSTEM
  degauss =   4.4100000000d-02  ! SIGMA in Rydberg  so, 0.60001101eV
  ecutrho = 400                 ! AUGMENTATION charges
  ecutwfc =  40                 ! ENCUT in Rydberg, so 544eV
  ibrav = 0                     ! no symmetry
     nat              = 107
     ntyp             = 2
  occupations = 'smearing'      ! using smearing 
  smearing = 'mp'               ! methfessel paxton
  nosym= .true. 		! no symmetry
/
&ELECTRONS
  conv_thr =   1.0000000000d-12   	! EDIFF
  mixing_beta =   4.0000000000d-01      ! MIXING
  mixing_mode = 'local-TF'                 ! MIXING
/
&IONS
  !press_conv_thr = 0.05                 ! just for volume relaxations
/
ATOMIC_SPECIES
Al     26.9815385 Al.pbe-n-kjpaw_psl.1.0.0.UPF
Si     28.085 Si.pbe-n-rrkjus_psl.1.0.0.UPF
K_POINTS automatic
7 7 7 0 0 0                  	! in a 4x4x4 supercell
CELL_PARAMETERS angstrom
12.17100000000000 0.00000000000000 0.00000000000000
0.00000000000000 12.17100000000000 0.00000000000000
0.00000000000000 0.00000000000000 12.17100000000000
ATOMIC_POSITIONS angstrom
Al       1.948740007   1.912261341   0.116238649
Al       0.033635433   0.018670532   3.996257708
Al       0.004115781   2.027362610   6.076034127
Al       2.025903709   0.005836495   6.070811509
Al       2.015803790   1.991993854   3.987005475
Al       0.002534741   0.001814745   8.114908368
Al       0.005772099   2.013562814  10.163181545
Al       2.020812577   0.004439932  10.152294841
Al       2.027791390   2.027513350   8.114802276
Al       0.005772153   4.036318439   0.014937059
Al       0.002534800   6.084591710   2.026685283
Al       2.020812758   4.047205235   2.024060087
Al       2.027791430   6.084697791   0.000986695
Al       0.002940204   4.041856306   4.040004172
Al       0.004787085   6.084907929   6.082884617
Al       2.024915330   4.042017895   6.066113350
Al       2.025684052   6.084961720   4.051777636
Al       0.005379358   4.050094774   8.120205432
Al       0.005379360   6.079294600  10.149405227
Al       2.025547040   4.026736270  10.172763805
Al       2.026748765   6.080276224   8.119223831
Al       0.004115813   8.123465764   0.001137464
Al       0.033635335  10.203242304   2.009829575
Al       2.025903777   8.128688636   2.022663584
Al       2.015803825  10.212494563   0.036506215
Al       0.002179302   8.121696698   4.049602720
Al       0.002179266  10.149897323   6.077803328
Al       2.028193058   8.128376481   6.071123591
Al       2.022748394  10.185731065   4.013769074
Al       0.004787090   8.116615350   8.114592066
Al       0.002940153  10.159495890  10.157643677
Al       2.024915300   8.133386699  10.157482107
Al       2.025683945  10.147722354   8.114538387
Al       4.028697564   0.004661123   0.032245701
Al       4.028697666   1.996254382   2.023838829
Al       6.091032280   0.000592869   2.027907187
Al       6.088952833   2.028080301   0.000419687
Al       4.023532217   0.003960260   4.019507152
Al       4.050387842   2.028128907   6.078086885
Al       6.074637278   0.002432311   6.071105211
Al       6.087670527   2.028604103   4.054091092
Al       4.050801681   0.001940207   8.116062472
Al       4.039101140   2.025445321  10.160313623
Al       6.074448296   0.001850539  10.153541660
Al       6.078759265   2.023815358   8.120595755
Al       4.039101222   4.039186409   0.003054710
Al       4.050801762   6.083437616   2.026559794
Al       6.074448414   4.045958378   2.026649491
Al       6.078759255   6.078904224   0.004684652
Al       4.053813122   4.055637021   4.055174954
Al       4.052988292   6.085678772   6.084852218
Al       6.086276708   4.056782212   6.088024647
Al       6.082721386   6.086026008   4.052499156
Al       4.051041278   4.054368038   8.115120956
Al       4.051041278   6.084379031  10.145132020
Al       6.085441495   4.055696089  10.143803865
Al       6.084325588   6.085669939   8.113830021
Al       4.050387861   8.121413189   0.000371079
Al       4.023532262  10.179992793   2.024539717
Al       6.074637265   8.128394713   2.026067713
Al       6.087670457  10.145408934  -0.000104110
Al       4.053177650   8.118505281   4.052337304
Al       4.053177628  10.147162693   6.080994782
Al       6.086124782   8.112586687   6.086913296
Al       6.085465898  10.145453461   4.054046619
Al       4.052988234   8.114647772   8.113821249
Al       4.053813003  10.144325097  10.143863001
Al       6.086276672   8.111475395  10.142717777
Al       6.082721329  10.147000753   8.113473865
Al       8.125703553   0.002134468   0.000019119
Al       8.125703598   2.028480816   2.026365480
Al      10.178459607   0.020161086   2.008338863
Al      10.182385891   2.012097686   0.016402293
Al       8.124601969   0.001349356   4.049242143
Al       8.116515817   2.025101580   6.084402517
Al      10.158421427   0.001147281   6.068686708
Al      10.145063386   2.029438903   4.054457968
Al       8.118679357   0.001982072   8.116181708
Al       8.123536593   2.025828056  10.148750221
Al      10.163099783   0.001728716  10.161471266
Al      10.147746357   2.025708857   8.115436390
Al       8.123536627   4.050749732   0.002671885
Al       8.118679415   6.083318228   2.026517890
Al      10.163099799   4.038028752   2.026771254
Al      10.147746340   6.084063542   0.002791075
Al       8.114991477   4.059300814   4.054913128
Al       8.114475774   6.086123600   6.083672442
Al      10.147246591   4.057788921   6.083830749
Al      10.148783268   6.082686613   4.051357615
Al       8.113813385   4.055060178   8.113907880
Al       8.113813415   6.085592062  10.144439787
Al      10.145940787   4.052569320  10.146930742
Al      10.144999216   6.083467901   8.116032049
Al       8.116515824   8.115097330   0.003398416
Al       8.124601929  10.150257834   2.027150650
Al      10.158421340   8.130813261   2.027352769
Al      10.145063300  10.145041966  -0.000938918
Al       8.116193819   8.116323136   4.052101026
Al       8.116193843  10.147398950   6.083176811
Al      10.142607955   8.115100662   6.084399312
Al      10.148003346  10.150410625   4.049089395
Al       8.114475763   8.115827489   8.113376307
Al       8.114991449  10.144586795  10.140199178
Al      10.147246558   8.115669217  10.141711082
Al      10.148783194  10.148142434   8.116813403
Si       0.006209783  -0.034776527   0.018385534
Si       0.006209910   2.010114400   2.063276343
