&CONTROL
  calculation = 'vc-relax'
  etot_conv_thr =   2.5000000000d-04
  forc_conv_thr =   2.0000000000d-05
  max_seconds =   2.7360000000d+04
  outdir = './out/'
  prefix = 'aiida'
  pseudo_dir = './pseudo/'
  restart_mode = 'from_scratch'
  tprnfor = .true.
  tstress = .true.
  verbosity = 'high'
  wf_collect = .true.
/
&SYSTEM
  degauss =   4.4100000000d-02
  ecutrho = 400
  ecutwfc = 40
  ibrav = 0
  nat = 4
  nbnd = 20
  nosym = .true.
  ntyp = 1
  occupations = 'smearing'
  smearing = 'mp'
/
&ELECTRONS
  conv_thr =   1.0000000000d-12
  mixing_beta =   4.0000000000d-01
  mixing_mode = 'local-TF'
/
&IONS
/
&CELL
/
ATOMIC_SPECIES
Al     26.98154 Al.pbe-n-kjpaw_psl.1.0.0.UPF
ATOMIC_POSITIONS angstrom
Al           0.0000000000       0.0000000000       0.0000000000 
Al           0.0000000000       2.0206684771       2.0206684771 
Al           2.0206684771       0.0000000000       2.0206684771 
Al           2.0206684771       2.0206684771       0.0000000000 
K_POINTS automatic
20 20 20 0 0 0
CELL_PARAMETERS angstrom
      4.0413369542       0.0000000000       0.0000000000
      0.0000000000       4.0413369542       0.0000000000
      0.0000000000       0.0000000000       4.0413369542
