Mg5_Si6 C2/m
1.0
15.126951831  0.000000000 -0.782818517  
0.000000000  4.061542020  0.000000000   
-2.096220504  0.000000000  6.628861405  
10 12
Cartesian
-0.01335 	 0.00000 	 0.07397
5.05375 	 0.00000 	 0.24067
7.94684 	 0.00000 	 5.76118
5.07621 	 0.00000 	 3.90932
7.92501 	 0.00000 	 2.09327
0.36286 	 2.03077 	 2.47986
0.38508 	 2.03077 	 6.14860
12.64088 	 2.03077 	 3.51351
12.61855 	 2.03077 	 -0.15418
7.54846 	 2.03077 	 -0.31343
-0.54041 	 0.00000 	 4.46917
2.34768 	 0.00000 	 1.64714
1.81260 	 0.00000 	 4.10132
11.19040 	 0.00000 	 1.89486
13.54334 	 0.00000 	 1.52456
10.65555 	 0.00000 	 4.34893
3.62619 	 2.03077 	 2.28819
3.09111 	 2.03077 	 4.74227
5.97918 	 2.03077 	 1.91955
7.02229 	 2.03077 	 4.08166
9.37526 	 2.03077 	 3.71206
9.90999 	 2.03077 	 1.25796
