Al Cu 
 1.0000000000000000
     5.9350293285570670   -0.0000000000000007    0.0000000000000003
     0.0000000000000003    5.9350293285570670    0.0000000000000004
    -0.0000000000000001    0.0000000000000000    4.9079490516965105
   8   4
Cartesian
  3.9593330365886064  0.9918183723100745  2.4539745258482544
  1.9756962919684602  4.9432109562469897  2.4539745258482557
  3.9593330365886077  4.9432109562469941  0.0000000000000009
  1.9756962919684580  0.9918183723100747 -0.0000000000000001
  0.9918183723100759  3.9593330365886064 -0.0000000000000001
  4.9432109562469924  1.9756962919684584 -0.0000000000000004
  0.9918183723100747  1.9756962919684575  2.4539745258482553
  4.9432109562469906  3.9593330365886077  2.4539745258482557
  0.0000000000000001 -0.0000000000000010  3.6809617887723833
  0.0000000000000003 -0.0000000000000014  1.2269872629241279
  2.9675146642785335  2.9675146642785326  1.2269872629241276
  2.9675146642785335  2.9675146642785335  3.6809617887723838
