&CONTROL
  calculation = 'scf'
  outdir = './out/'
  prefix = 'aiida'
  pseudo_dir = '/users/aglensk/Dropbox/Albert/scripts/dotfiles/scripts/potentials/quantum_espresso/pseudo_SSSPefV1.1_alalloy'
  tprnfor = .true.             	! calculate the pressure of the cell
  tstress = .true.
  verbosity = 'high'
  wf_collect = .true.
  etot_conv_thr = 2.5d-4    ! EDIFFG positive atomic units
  forc_conv_thr = 2.0d-5
/
&SYSTEM
  degauss =   4.4100000000d-02  ! SIGMA in Rydberg  so, 0.60001101eV
  ecutrho = 400                 ! AUGMENTATION charges
  ecutwfc =  40                 ! ENCUT in Rydberg, so 544eV
  ibrav = 0                     ! no symmetry
   nat              = 256
   ntyp             = 2
  occupations = 'smearing'      ! using smearing 
  smearing = 'mp'               ! methfessel paxton
  nosym= .true. 		! no symmetry
/
&ELECTRONS
  conv_thr =   1.0000000000d-12   	! EDIFF
  mixing_beta =   4.0000000000d-01      ! MIXING
  mixing_mode = 'local-TF'                 ! MIXING
/
&IONS
  !press_conv_thr = 0.05                 ! just for volume relaxations
/
ATOMIC_SPECIES
Si 28.085 Si.pbe-n-rrkjus_psl.1.0.0.UPF
Al 26.9815385 Al.pbe-n-kjpaw_psl.1.0.0.UPF

K_POINTS automatic
5 5 5 0 0 0
CELL_PARAMETERS angstrom
16.22799863997135 0.00000000000000 0.00000000000000
0.00000000000000 16.22799863997135 0.00000000000000
0.00000000000000 0.00000000000000 16.22799863997135

ATOMIC_POSITIONS angstrom
Si 16.2265592780 16.2257665705 16.2265592780 
Al 2.0157349512 0.0055807029 2.0157349512 
Al 2.0158693622 2.0284997638 0.0126309308 
Al 0.0126309308 2.0284997638 2.0158693622 
Al 0.0000301631 0.0012779630 4.0516744174 
Al 2.0283367773 2.0406591978 4.0430387745 
Al 2.0284235623 0.0020701412 6.0825814084 
Al 0.0001465821 2.0285532107 6.0831862580 
Al 0.0001672200 0.0002397173 8.1139127995 
Al 2.0286320582 2.0287209599 8.1131476093 
Al 2.0284098037 0.0003317941 10.1433116354 
Al 16.2278700499 2.0282790970 10.1433523821 
Al 0.0001867996 0.0002196085 12.1764173577 
Al 2.0283552985 2.0284452586 12.1733121459 
Al 2.0164652157 0.0020378614 14.2138591581 
Al 0.0001629866 2.0163408591 14.2134606876 
Al 0.0127664002 4.0514182957 0.0127664002 
Al 2.0283743489 6.0727212494 0.0121610215 
Si 2.0299317174 4.0592305388 2.0299317174 
Al 0.0121610215 6.0727212494 2.0283743489 
Al 0.0120371940 4.0549627246 4.0426381874 
Al 2.0281822575 6.0728360809 4.0442527071 
Al 2.0283156102 4.0567815067 6.0800821044 
Al 0.0001942080 6.0855130502 6.0842811256 
Al 0.0000941935 4.0566672044 8.1131862392 
Al 2.0285288686 6.0855918976 8.1132545031 
Al 2.0283357189 4.0567598104 10.1425850751 
Al 16.2278742833 6.0858040976 10.1423368910 
Al 0.0000777890 4.0549277989 12.1739185829 
Al 2.0283330730 6.0852918541 12.1720807505 
Al 2.0284706591 4.0557199772 14.2048245156 
Al 0.0001539906 6.0844838005 14.2010483070 
Al 0.0001534614 8.1126364241 0.0001534614 
Al 2.0283992202 10.1424993484 0.0001016020 
Al 2.0286394666 8.1090041517 2.0286394666 
Al 0.0001016020 10.1424993484 2.0283992202 
Al 0.0001815078 8.1125528141 4.0565259141 
Al 2.0283373064 10.1417410375 4.0566608543 
Al 2.0285463314 8.1120061740 6.0836715135 
Al 0.0001312359 10.1422760356 6.0854580157 
Al 0.0001439362 8.1137752134 8.1139297332 
Al 2.0285045264 10.1424739479 8.1141710380 
Al 2.0285145808 8.1136953077 10.1423077863 
Al 16.2279981108 10.1425263365 10.1423263075 
Al 0.0001703951 8.1137344668 12.1713991702 
Al 2.0283717030 10.1427226612 12.1710393297 
Al 2.0286124786 8.1119003386 14.2014727071 
Al 0.0001661616 10.1432576594 14.1998396662 
Al 16.2278605247 12.1759945451 16.2278605247 
Al 2.0163398007 14.2122769182 0.0001259442 
Al 2.0283484192 12.1723622728 2.0283484192 
Al 0.0001259442 14.2122769182 2.0163398007 
Al 16.2278869836 12.1730988874 4.0550262259 
Al 2.0283478900 14.2005138380 4.0554500968 
Al 2.0283336022 12.1712637009 6.0850997628 
Al 0.0001677492 14.1997063136 6.0844165950 
Al 16.2279875272 12.1713039183 8.1141900884 
Al 2.0286294123 14.1991930117 8.1141625712 
Al 2.0283605902 12.1712245418 10.1425660248 
Al 16.2279732395 14.1994067993 10.1432439008 
Al 16.2279552474 12.1729930520 12.1728268904 
Al 2.0283087309 14.1994851175 12.1722162199 
Al 2.0283209020 12.1724458828 14.1999730189 
Al 0.0003196230 14.2121631451 14.2122462259 
Al 4.0516744174 0.0012779630 0.0000301631 
Al 6.0831862580 2.0285532107 0.0001465821 
Al 6.0825814084 0.0020701412 2.0284235623 
Al 4.0430387745 2.0406591978 2.0283367773 
Al 4.0546224637 0.0015330264 4.0546224637 
Al 6.0840900926 2.0284415544 4.0566449790 
Al 6.0863496793 16.2273165305 6.0863496793 
Al 4.0566449790 2.0284415544 6.0840900926 
Al 4.0565084512 0.0002259587 8.1139344958 
Al 6.0854077439 2.0286802133 8.1139101536 
Al 6.0856342317 0.0000418050 10.1423093738 
Al 4.0568936923 2.0282108331 10.1425723749 
Al 4.0547738084 0.0002222544 12.1731094710 
Al 6.0851622057 2.0284981763 12.1713340814 
Al 6.0853939853 16.2273160014 14.1988961433 
Al 4.0554125252 2.0284992347 14.2010853494 
Al 4.0426381874 4.0549627246 0.0120371940 
Al 6.0842811256 6.0855130502 0.0001942080 
Al 6.0800821044 4.0567815067 2.0283156102 
Al 4.0442527071 6.0728360809 2.0281822575 
Al 4.0457804417 4.0576112566 4.0457804417 
Al 6.0839683819 6.0852929124 4.0566899590 
Al 6.0834614301 4.0569519017 6.0834614301 
Al 4.0566899590 6.0852929124 6.0839683819 
Al 4.0568899880 4.0569905317 8.1132248691 
Al 6.0850336156 6.0851426261 8.1138963950 
Al 6.0851955438 4.0569926484 10.1424443140 
Al 4.0571048340 6.0856622781 10.1424633644 
Al 4.0576012022 4.0576811079 12.1711028310 
Al 6.0853151379 6.0853998062 12.1710329796 
Al 6.0833868161 4.0567756857 14.2017261830 
Al 4.0567148304 6.0853823434 14.2009419424 
Al 4.0565259141 8.1125528141 0.0001815078 
Al 6.0854580157 10.1422760356 0.0001312359 
Al 6.0836715135 8.1120061740 2.0285463314 
Al 4.0566608543 10.1417410375 2.0283373064 
Al 4.0567809775 8.1123924734 4.0567809775 
Al 6.0852907957 10.1424316137 4.0568603541 
Al 6.0859014662 8.1146181927 6.0859014662 
Al 4.0568603541 10.1424316137 6.0852907957 
Al 4.0569291471 8.1138032598 8.1139741841 
Al 6.0853156671 10.1427792832 8.1140445646 
Al 6.0852526950 8.1139630713 10.1427432991 
Al 4.0570180489 10.1426210592 10.1424056841 
Al 4.0567809775 8.1137466379 12.1711176480 
Al 6.0855289255 10.1425004068 12.1709663033 
Al 6.0863417417 8.1146742855 14.1988194126 
Al 4.0565973530 10.1424998776 14.1999005216 
Al 4.0550262259 12.1730988874 16.2278869836 
Al 6.0844165950 14.1997063136 0.0001677492 
Al 6.0850997628 12.1712637009 2.0283336022 
Al 4.0554500968 14.2005138380 2.0283478900 
Al 4.0578033479 12.1702878981 4.0578033479 
Al 6.0851447428 14.1997788109 4.0565745984 
Al 6.0855008791 12.1709991123 6.0855008791 
Al 4.0565745984 14.1997788109 6.0851447428 
Al 4.0569974110 12.1709917038 8.1141662754 
Al 6.0856961455 14.1994189704 8.1140477397 
Al 6.0855500926 12.1710144584 10.1424548975 
Al 4.0567481685 14.1995041679 10.1425829584 
Al 4.0576811079 12.1703254697 12.1701534871 
Al 6.0854648950 14.1995988906 12.1711779742 
Al 6.0853791683 12.1712536465 14.1997168971 
Al 4.0555575198 14.1996158243 14.1997830443 
Al 8.1139127995 0.0002397173 0.0001672200 
Al 10.1433523821 2.0282790970 16.2278700499 
Al 10.1433116354 0.0003317941 2.0284098037 
Al 8.1131476093 2.0287209599 2.0286320582 
Al 8.1139344958 0.0002259587 4.0565084512 
Al 10.1425723749 2.0282108331 4.0568936923 
Al 10.1423093738 0.0000418050 6.0856342317 
Al 8.1139101536 2.0286802133 6.0854077439 
Al 8.1140281601 0.0000010584 8.1140281601 
Al 10.1423146656 2.0284976471 8.1141805632 
Al 10.1423215449 16.2279488973 10.1423215449 
Al 8.1141805632 2.0284976471 10.1423146656 
Al 8.1140514439 0.0000052918 12.1712986266 
Al 10.1425882502 2.0283171977 12.1710906599 
Al 10.1432735347 0.0000100544 14.1996089450 
Al 8.1139249706 2.0287871071 14.1996052407 
Al 8.1131862392 4.0566672044 0.0000941935 
Al 10.1423368910 6.0858040976 16.2278742833 
Al 10.1425850751 4.0567598104 2.0283357189 
Al 8.1132545031 6.0855918976 2.0285288686 
Al 8.1132248691 4.0569905317 4.0568899880 
Al 10.1424633644 6.0856622781 4.0571048340 
Al 10.1424443140 4.0569926484 6.0851955438 
Al 8.1138963950 6.0851426261 6.0850336156 
Al 8.1141731547 4.0570460953 8.1141731547 
Al 10.1427321864 6.0852855040 8.1141636295 
Al 10.1424697145 4.0569931776 10.1424697145 
Al 8.1141636295 6.0852855040 10.1427321864 
Al 8.1141853258 4.0569540185 12.1708647013 
Al 10.1424506641 6.0855770806 12.1708049042 
Al 10.1425654956 4.0567698648 14.1999931276 
Al 8.1139117412 6.0854934706 14.1997544687 
Al 8.1139297332 8.1137752134 0.0001439362 
Al 10.1423263075 10.1425263365 16.2279981108 
Al 10.1423077863 8.1136953077 2.0285145808 
Al 8.1141710380 10.1424739479 2.0285045264 
Al 8.1139741841 8.1138032598 4.0569291471 
Al 10.1424056841 10.1426210592 4.0570180489 
Al 10.1427432991 8.1139630713 6.0852526950 
Al 8.1140445646 10.1427792832 6.0853156671 
Al 8.1140657317 8.1140186350 8.1140657317 
Al 10.1427311280 10.1425025235 8.1137635715 
Al 10.1427094318 8.1140345103 10.1427094318 
Al 8.1137635715 10.1425025235 10.1427311280 
Al 8.1140382145 8.1139874135 12.1709483113 
Al 10.1424517225 10.1422247055 12.1711816784 
Al 10.1423321284 8.1140085806 14.1995052262 
Al 8.1140900739 10.1423802836 14.1994819425 
Al 8.1141900884 12.1713039183 16.2279875272 
Al 10.1432439008 14.1994067993 16.2279732395 
Al 10.1425660248 12.1712245418 2.0283605902 
Al 8.1141625712 14.1991930117 2.0286294123 
Al 8.1141662754 12.1709917038 4.0569974110 
Al 10.1425829584 14.1995041679 4.0567481685 
Al 10.1424548975 12.1710144584 6.0855500926 
Al 8.1140477397 14.1994189704 6.0856961455 
Al 8.1137868553 12.1709689492 8.1137868553 
Al 10.1423289534 14.1997116054 8.1137635715 
Al 10.1424284387 12.1709842953 10.1424284387 
Al 8.1137635715 14.1997116054 10.1423289534 
Al 8.1137524588 12.1710382714 12.1712414754 
Al 10.1425993629 14.1998560707 12.1714610840 
Al 10.1425226322 12.1711970245 14.1995697859 
Al 8.1140334519 14.1993369479 14.1993919823 
Al 12.1764173577 0.0002196085 0.0001867996 
Al 14.2134606876 2.0163408591 0.0001629866 
Al 14.2138591581 0.0020378614 2.0164652157 
Al 12.1733121459 2.0284452586 2.0283552985 
Al 12.1731094710 0.0002222544 4.0547738084 
Al 14.2010853494 2.0284992347 4.0554125252 
Al 14.1988961433 16.2273160014 6.0853939853 
Al 12.1713340814 2.0284981763 6.0851622057 
Al 12.1712986266 0.0000052918 8.1140514439 
Al 14.1996052407 2.0287871071 8.1139249706 
Al 14.1996089450 0.0000100544 10.1432735347 
Al 12.1710906599 2.0283171977 10.1425882502 
Al 12.1730364445 0.0000486843 12.1730364445 
Al 14.1998544832 2.0285590317 12.1724104279 
Al 14.2107184913 16.2273900862 14.2107184913 
Al 12.1724104279 2.0285590317 14.1998544832 
Al 12.1739185829 4.0549277989 0.0000777890 
Al 14.2010483070 6.0844838005 0.0001539906 
Al 14.2048245156 4.0557199772 2.0284706591 
Al 12.1720807505 6.0852918541 2.0283330730 
Al 12.1711028310 4.0576811079 4.0576012022 
Al 14.2009419424 6.0853823434 4.0567148304 
Al 14.2017261830 4.0567756857 6.0833868161 
Al 12.1710329796 6.0853998062 6.0853151379 
Al 12.1708647013 4.0569540185 8.1141853258 
Al 14.1997544687 6.0854934706 8.1139117412 
Al 14.1999931276 4.0567698648 10.1425654956 
Al 12.1708049042 6.0855770806 10.1424506641 
Al 12.1701529579 4.0576763454 12.1701529579 
Al 14.1999285680 6.0852156526 12.1713578944 
Al 14.2018764693 4.0554638554 14.2018764693 
Al 12.1713578944 6.0852156526 14.1999285680 
Al 12.1713991702 8.1137344668 0.0001703951 
Al 14.1998396662 10.1432576594 0.0001661616 
Al 14.2014727071 8.1119003386 2.0286124786 
Al 12.1710393297 10.1427226612 2.0283717030 
Al 12.1711176480 8.1137466379 4.0567809775 
Al 14.1999005216 10.1424998776 4.0565973530 
Al 14.1988194126 8.1146742855 6.0863417417 
Al 12.1709663033 10.1425004068 6.0855289255 
Al 12.1709483113 8.1139874135 8.1140382145 
Al 14.1994819425 10.1423802836 8.1140900739 
Al 14.1995052262 8.1140085806 10.1423321284 
Al 12.1711816784 10.1422247055 10.1424517225 
Al 12.1710001706 8.1140022305 12.1710001706 
Al 14.1996401664 10.1425686706 12.1712081373 
Al 14.1986971726 8.1147102696 14.1986971726 
Al 12.1712081373 10.1425686706 14.1996401664 
Al 12.1728268904 12.1729930520 16.2279552474 
Al 14.2122462259 14.2121631451 0.0003196230 
Al 14.1999730189 12.1724458828 2.0283209020 
Al 12.1722162199 14.1994851175 2.0283087309 
Al 12.1701534871 12.1703254697 4.0576811079 
Al 14.1997830443 14.1996158243 4.0555575198 
Al 14.1997168971 12.1712536465 6.0853791683 
Al 12.1711779742 14.1995988906 6.0854648950 
Al 12.1712414754 12.1710382714 8.1137524588 
Al 14.1993919823 14.1993369479 8.1140334519 
Al 14.1995697859 12.1711970245 10.1425226322 
Al 12.1714610840 14.1998560707 10.1425993629 
Al 12.1705953501 12.1703831500 12.1705953501 
Al 14.1998100323 14.1997063136 12.1725294928 
Al 14.1997195430 12.1726072818 14.1997195430 
Al 12.1725294928 14.1997063136 14.1998100323 

