&CONTROL
  calculation = 'scf'
  outdir = './out/'
  prefix = 'aiida'
  pseudo_dir = '/users/aglensk/Dropbox/Albert/scripts/dotfiles/scripts/potentials/quantum_espresso/pseudo_SSSPefV1.1_alalloy'
  tprnfor = .true.             	! calculate the pressure of the cell
  tstress = .true.
  verbosity = 'high'
  wf_collect = .true.
  etot_conv_thr = 2.5d-4    ! EDIFFG positive atomic units
  forc_conv_thr = 2.0d-5
/
&SYSTEM
  degauss =   4.4100000000d-02  ! SIGMA in Rydberg  so, 0.60001101eV
  ecutrho = 400                 ! AUGMENTATION charges
  ecutwfc =  40                 ! ENCUT in Rydberg, so 544eV
  ibrav = 0                     ! no symmetry
   nat              = 176
   ntyp             = 3
  occupations = 'smearing'      ! using smearing 
  smearing = 'mp'               ! methfessel paxton
  nosym= .true. 		! no symmetry
/
&ELECTRONS
  conv_thr =   1.0000000000d-12   	! EDIFF
  mixing_beta =   4.0000000000d-01      ! MIXING
  mixing_mode = 'local-TF'                 ! MIXING
/
&IONS
  !press_conv_thr = 0.05                 ! just for volume relaxations
/
ATOMIC_SPECIES
Mg 24.305 Mg.pbe-n-kjpaw_psl.0.3.0.UPF
Si 28.085 Si.pbe-n-rrkjus_psl.1.0.0.UPF
Al 26.9815385 Al.pbe-n-kjpaw_psl.1.0.0.UPF

K_POINTS automatic
1 20 13 0 0 0
CELL_PARAMETERS angstrom
121.14748315637974 0.00000000000000 0.00000000000000
0.00000000000000 4.05703339504001 0.00000000000000
-1.68781388815663 0.00000000000000 6.18865074684859

ATOMIC_POSITIONS angstrom
Mg 2.0731967169 0.0000000000 5.9730401383 
Mg 4.3049788479 2.0285166975 2.0108755169 
Mg 4.5778951149 2.0285166975 5.4131320196 
Mg 9.0131489252 0.0000000000 0.3501163428 
Mg 9.2711625036 0.0000000000 3.7723170054 
Si 3.5250171487 0.0000000000 3.8334083976 
Si 6.2834909449 0.0000000000 1.1395873564 
Al 6.0602448384 0.0000000000 3.6625730604 
Al 7.5258794412 2.0285166975 2.1139856963 
Si 7.3203517752 2.0285166975 4.6350346118 
Si 10.0630555613 2.0285166975 1.9313317153 
Mg 9.8630551513 2.0285166975 6.0128411438 
Mg 12.1383816874 0.0000000000 2.0623612844 
Mg 12.3997624204 0.0000000000 5.4792368367 
Mg 1.1177482129 2.0285166975 0.3227531184 
Mg 1.4399319366 2.0285166975 3.6731962929 
Si 11.3485735879 2.0285166975 3.9042043707 
Si 14.0972517847 2.0285166975 1.1960436854 
Al 119.4585108993 2.0285166975 3.5909960217 
Al 15.3494141841 0.0000000000 2.1674775747 
Si -0.3193658551 0.0000000000 4.5719603925 
Si 2.1787379365 0.0000000000 1.8626344590 
Mg 17.6848600139 0.0000000000 6.0638289556 
Mg 19.9624863541 2.0285166975 2.1148731265 
Mg 20.2307802582 2.0285166975 5.5315380663 
Mg 24.6529575704 0.0000000000 0.4510600707 
Mg 24.9185076907 0.0000000000 3.8684917883 
Si 19.1757157318 0.0000000000 3.9576396271 
Si 21.9172950163 0.0000000000 1.2449116133 
Al 21.7114043348 0.0000000000 3.7680423119 
Al 23.1684170533 2.0285166975 2.2144028930 
Si 22.9630523739 2.0285166975 4.7369615510 
Si 25.7009475267 2.0285166975 2.0217479918 
Mg 25.5025515820 2.0285166975 6.1023054306 
Mg 27.7735589737 0.0000000000 2.1468814684 
Mg 28.0357874486 0.0000000000 5.5645153317 
Mg 16.8345690759 2.0285166975 0.4081374488 
Mg 17.0949057423 2.0285166975 3.8247203662 
Si 26.9890870972 2.0285166975 3.9921557398 
Si 29.7323158270 2.0285166975 1.2785498210 
Al 13.8830863591 2.0285166975 3.7194463811 
Al 30.9870685489 0.0000000000 2.2464027681 
Si 15.1355996030 0.0000000000 4.6912094185 
Si 17.8866580389 0.0000000000 1.9852130680 
Mg 33.3319025116 0.0000000000 6.1373036238 
Mg 35.6193551434 2.0285166975 2.1892294039 
Mg 35.8867584423 2.0285166975 5.6070744089 
Mg 40.3425977752 0.0000000000 0.5327819657 
Mg 40.6116854452 0.0000000000 3.9497183734 
Si 34.8269286751 0.0000000000 4.0295817981 
Si 37.5922320323 0.0000000000 1.3241834178 
Al 37.3743544286 0.0000000000 3.8477924926 
Al 38.8572158664 2.0285166975 2.2913738350 
Si 38.6391705135 2.0285166975 4.8153104704 
Si 41.4093385968 2.0285166975 2.1139698210 
Mg 42.9030248836 2.0285166975 0.0040894815 
Mg 43.5073934132 0.0000000000 2.2473912711 
Mg 43.7758540081 0.0000000000 5.6658644095 
Mg 32.4674269785 2.0285166975 0.4843103916 
Mg 32.7358335974 2.0285166975 3.8975536716 
Si 42.7109541941 2.0285166975 4.0840283121 
Si 45.4812540425 2.0285166975 1.3848525266 
Al 29.5224711334 2.0285166975 3.8007486385 
Al 46.7476364920 0.0000000000 2.3542829509 
Si 30.7758977372 0.0000000000 4.7696340103 
Si 33.5301957959 0.0000000000 2.0596074462 
Mg 50.7970047551 0.0000000000 0.0742440918 
Mg 51.4050309576 2.0285166975 2.3187042504 
Mg 51.6676446735 2.0285166975 5.7409483055 
Mg 56.1376495512 0.0000000000 0.6828873149 
Mg 56.4110394319 0.0000000000 4.0886141618 
Si 50.6027919562 0.0000000000 4.1520826181 
Si 53.3739628304 0.0000000000 1.4592474340 
Al 53.1580759913 0.0000000000 3.9851838301 
Al 54.6490878165 2.0285166975 2.4298812072 
Si 54.4164350559 2.0285166975 4.9555768278 
Si 57.2037696479 2.0285166975 2.2786323061 
Mg 58.6689930801 2.0285166975 0.1364927946 
Mg 59.3151179250 0.0000000000 2.4436070057 
Mg 59.6425801914 0.0000000000 5.7902956679 
Mg 48.2347588647 2.0285166975 0.5979157427 
Mg 48.5039835915 2.0285166975 4.0168392108 
Si 58.5616944630 2.0285166975 4.2406187280 
Si 61.0917012902 2.0285166975 1.5505273277 
Al 45.2638712195 2.0285166975 3.9094802675 
Al 62.4792473289 0.0000000000 2.5230481469 
Si 46.5292926831 0.0000000000 4.8791699887 
Si 49.3000714369 0.0000000000 2.1817076790 
Al 65.7975853220 0.0000000000 4.6869670048 
Al 66.3437776966 2.0285166975 0.1810405197 
Al 67.4866485976 2.0285166975 5.7855235478 
Al 68.0328049881 0.0000000000 1.2808358666 
Al 70.8561273347 0.0000000000 0.7030240953 
Al 69.7289856971 2.0285166975 2.3948380340 
Al 72.5455208168 2.0285166975 1.8124658135 
Al 74.2322430124 0.0000000000 2.9230182747 
Al 61.2263303227 2.0285166975 4.1370793858 
Al 64.1503032331 2.0285166975 3.6092034220 
Al 62.8567522965 0.0000000000 5.2525299112 
Al 65.1987445776 0.0000000000 1.8648919290 
Al 66.9200601457 2.0285166975 2.9772425343 
Al 68.5964035887 0.0000000000 4.0851094211 
Al 71.4169662761 0.0000000000 3.5035389041 
Al 70.2923668059 2.0285166975 5.1969165615 
Al 73.1085606063 2.0285166975 4.6157651528 
Al 73.6686930961 0.0000000000 0.1178742237 
Al 74.7960040704 0.0000000000 5.7279099082 
Al 75.3584421853 2.0285166975 1.2310048362 
Al 77.0462894117 0.0000000000 2.3439370073 
Al 63.5351696515 2.0285166975 0.7175087339 
Al 80.4221299172 0.0000000000 4.5712592327 
Al 80.9849104098 2.0285166975 0.0742393292 
Al 82.1076895104 2.0285166975 5.6849380728 
Al 82.6711028990 0.0000000000 1.1878631349 
Al 85.4779133291 0.0000000000 0.6091337704 
Al 84.3549156783 2.0285166975 2.3011382129 
Al 87.1554781130 2.0285166975 1.7208271376 
Al 88.8273875801 0.0000000000 2.8309927703 
Al 75.9209115217 2.0285166975 4.0360377600 
Al 78.7350960363 2.0285166975 3.4576618858 
Al 77.6092265407 0.0000000000 5.1491292135 
Al 79.8602426757 0.0000000000 1.7661014230 
Al 81.5470881696 2.0285166975 2.8798173056 
Al 83.2315274947 0.0000000000 3.9931400095 
Al 86.0342563809 0.0000000000 3.4132528052 
Al 84.9125372223 2.0285166975 5.1056461929 
Al 87.7080364895 2.0285166975 4.5239724863 
Al 88.2759373008 0.0000000000 0.0281490525 
Al 89.3771873558 0.0000000000 5.6332364010 
Al 89.9463380836 2.0285166975 1.1378410716 
Al 91.6144475292 0.0000000000 2.2464895531 
Al 78.1726521004 2.0285166975 0.6527893027 
Al 94.9579293775 0.0000000000 4.4635632035 
Al 93.8373061448 2.0285166975 6.1568657177 
Al 96.6316623892 2.0285166975 5.5717163752 
Al 97.1992107685 0.0000000000 1.0766025681 
Al 99.9909057808 0.0000000000 0.4905732039 
Al 98.8712144292 2.0285166975 2.1842302668 
Al 101.6614679627 2.0285166975 1.5990650490 
Al 103.3354766758 0.0000000000 2.7081712689 
Al 90.4958124153 2.0285166975 3.9398947277 
Al 93.2845445643 2.0285166975 3.3549411808 
Al 92.1648145828 0.0000000000 5.0483357718 
Al 94.4046148068 0.0000000000 1.6616143245 
Al 96.0786833169 2.0285166975 2.7701506205 
Al 97.7518532841 0.0000000000 3.8779434225 
Al 100.5417236933 0.0000000000 3.2917590094 
Al 99.4218259626 2.0285166975 4.9858637562 
Al 102.2143179158 2.0285166975 4.4015330509 
Al 101.0945979886 0.0000000000 6.0940735499 
Al 103.8898136168 0.0000000000 5.5096624096 
Al 104.4578260845 2.0285166975 1.0151481602 
Al 106.1298022279 0.0000000000 2.1230621438 
Al 92.7334202581 2.0285166975 0.5530875536 
Al 109.4721225322 0.0000000000 4.3338232393 
Al 108.3560846201 2.0285166975 6.0289238976 
Al 111.1439441559 2.0285166975 5.4364809056 
Al 111.7148665691 0.0000000000 0.9454158333 
Al 114.4958806685 0.0000000000 0.3555102461 
Al 113.3940421685 2.0285166975 2.0529895560 
Al 116.1737560795 2.0285166975 1.4414797799 
Al 117.8038404382 0.0000000000 2.5186088793 
Al 105.0120518983 2.0285166975 3.8169700368 
Al 107.8043364140 2.0285166975 3.2281159246 
Al 106.6818102601 0.0000000000 4.9232869635 
Al 108.9211151742 0.0000000000 1.5338407827 
Al 110.5968744055 2.0285166975 2.6397063214 
Al 112.2677445686 0.0000000000 3.7453945856 
Al 115.0551484828 0.0000000000 3.1571289185 
Al 113.9428359782 2.0285166975 4.8536414217 
Al 116.7500734543 2.0285166975 4.2561723046 
Al 115.6161239519 0.0000000000 5.9464955511 
Al 118.3959082435 0.0000000000 5.4006048075 
Al 119.0856055400 2.0285166975 0.8651343587 
Al -0.4551093348 0.0000000000 1.9800239563 
Al 107.2525321151 2.0285166975 0.4283350846 

