Al 
 1.0000000000000000
     4.0463742168931907    0.0000000000000000    0.0000000000000000
     0.0000000000000000    4.0463742168931907    0.0000000000000000
     0.0000000000000000    0.0000000000000000    4.0463742168931907
   4
Cartesian
  0.0000000000000000  0.0000000000000000  0.0000000000000000
  0.0000000000000000  2.0231871084465949  2.0231871084465949
  2.0231871084465949  0.0000000000000000  2.0231871084465949
  2.0231871084465949  2.0231871084465949  0.0000000000000000
