Al 
 1.0000000000000000
     8.0818479595933059   -0.0000000000000012    0.0000000000000052
    -0.0000000000000012    8.0818479595933166    0.0000000000000038
     0.0000000000000052    0.0000000000000038    8.0818479595932295
  32
Cartesian
  0.0000000000000000  0.0000000000000000  0.0000000000000000
  0.0000000000000010  2.0204619898983300  2.0204619898983078
  2.0204619898983278  0.0000000000000006  2.0204619898983087
  2.0204619898983260  2.0204619898983287  0.0000000000000022
  0.0000000000000026  0.0000000000000019  4.0409239797966139
  0.0000000000000036  2.0204619898983318  6.0613859696949222
  2.0204619898983300  0.0000000000000025  6.0613859696949222
  2.0204619898983287  2.0204619898983305  4.0409239797966157
 -0.0000000000000006  4.0409239797966574  0.0000000000000019
  0.0000000000000004  6.0613859696949888  2.0204619898983101
  2.0204619898983274  4.0409239797966583  2.0204619898983105
  2.0204619898983256  6.0613859696949870  0.0000000000000041
  0.0000000000000020  4.0409239797966592  4.0409239797966148
  0.0000000000000030  6.0613859696949914  6.0613859696949239
  2.0204619898983296  4.0409239797966610  6.0613859696949239
  2.0204619898983283  6.0613859696949888  4.0409239797966174
  4.0409239797966521 -0.0000000000000006  0.0000000000000026
  4.0409239797966530  2.0204619898983296  2.0204619898983109
  6.0613859696949799  0.0000000000000001  2.0204619898983109
  6.0613859696949790  2.0204619898983283  0.0000000000000048
  4.0409239797966547  0.0000000000000013  4.0409239797966165
  4.0409239797966556  2.0204619898983314  6.0613859696949239
  6.0613859696949826  0.0000000000000019  6.0613859696949257
  6.0613859696949817  2.0204619898983300  4.0409239797966183
  4.0409239797966512  4.0409239797966565  0.0000000000000045
  4.0409239797966521  6.0613859696949879  2.0204619898983127
  6.0613859696949790  4.0409239797966574  2.0204619898983127
  6.0613859696949781  6.0613859696949861  0.0000000000000067
  4.0409239797966539  4.0409239797966583  4.0409239797966174
  4.0409239797966547  6.0613859696949905  6.0613859696949266
  6.0613859696949817  4.0409239797966601  6.0613859696949266
  6.0613859696949808  6.0613859696949879  4.0409239797966201
