Al 
 1.0000000000000000
     8.0818479595933059   -0.0000000000000012    0.0000000000000052
    -0.0000000000000012    8.0818479595933166    0.0000000000000038
     0.0000000000000052    0.0000000000000038    8.0818479595932295
  32
Direct
  0.0000000000000000  0.0000000000000000  0.0000000000000000
  0.0000000000000000  0.2500000000000000  0.2499999999999999
  0.2500000000000000  0.0000000000000000  0.2500000000000000
  0.2500000000000000  0.2500000000000000  0.0000000000000000
  0.0000000000000000  0.0000000000000000  0.4999999999999999
  0.0000000000000000  0.2500000000000000  0.7499999999999999
  0.2499999999999999  0.0000000000000000  0.7499999999999999
  0.2500000000000000  0.2500000000000000  0.4999999999999998
  0.0000000000000000  0.4999999999999999  0.0000000000000000
  0.0000000000000000  0.7500000000000000  0.2500000000000000
  0.2500000000000000  0.4999999999999999  0.2500000000000000
  0.2500000000000000  0.7499999999999999  0.0000000000000000
  0.0000000000000000  0.4999999999999999  0.4999999999999998
  0.0000000000000000  0.7500000000000001  0.7499999999999999
  0.2499999999999999  0.5000000000000000  0.7499999999999998
  0.2500000000000000  0.7499999999999999  0.4999999999999998
  0.4999999999999999  0.0000000000000000  0.0000000000000000
  0.4999999999999999  0.2500000000000000  0.2500000000000000
  0.7500000000000000  0.0000000000000000  0.2499999999999999
  0.7500000000000000  0.2500000000000000  0.0000000000000000
  0.4999999999999999  0.0000000000000000  0.4999999999999999
  0.4999999999999999  0.2500000000000000  0.7499999999999998
  0.7500000000000000  0.0000000000000000  0.7500000000000000
  0.7500000000000000  0.2500000000000000  0.4999999999999999
  0.4999999999999999  0.4999999999999999  0.0000000000000000
  0.4999999999999999  0.7500000000000000  0.2500000000000000
  0.7500000000000000  0.4999999999999999  0.2499999999999999
  0.7500000000000000  0.7499999999999999  0.0000000000000000
  0.4999999999999999  0.4999999999999999  0.4999999999999998
  0.4999999999999999  0.7500000000000001  0.7499999999999999
  0.7500000000000000  0.5000000000000000  0.7499999999999999
  0.7500000000000000  0.7499999999999999  0.4999999999999998
