Al 
 1.0000000000000000
     4.0407524209269958    0.0000000000000000    0.0000000000000000
     0.0000000000000000    4.0407524209269958    0.0000000000000000
     0.0000000000000000    0.0000000000000000    4.0407524209269958
   4
Cartesian
  0.0000000000000000  0.0000000000000000  0.0000000000000000
  0.0000000000000000  2.0203762104634975  2.0203762104634975
  2.0203762104634975  0.0000000000000000  2.0203762104634975
  2.0203762104634975  2.0203762104634975  0.0000000000000000
