&CONTROL
  calculation = 'scf'
  outdir = './out/'
  prefix = 'aiida'
  pseudo_dir = '/users/aglensk/Dropbox/Albert/scripts/dotfiles/scripts/potentials/quantum_espresso/pseudo_SSSPefV1.1_alalloy'
  tprnfor = .true.             	! calculate the pressure of the cell
  tstress = .true.
  verbosity = 'high'
  wf_collect = .true.
  etot_conv_thr = 2.5d-4    ! EDIFFG positive atomic units
  forc_conv_thr = 2.0d-5
/
&SYSTEM
  degauss =   4.4100000000d-02  ! SIGMA in Rydberg  so, 0.60001101eV
  ecutrho = 400                 ! AUGMENTATION charges
  ecutwfc =  40                 ! ENCUT in Rydberg, so 544eV
  ibrav = 0                     ! no symmetry
   nat              = 22
   ntyp             = 3
  occupations = 'smearing'      ! using smearing 
  smearing = 'mp'               ! methfessel paxton
  nosym= .true. 		! no symmetry
/
&ELECTRONS
  conv_thr =   1.0000000000d-12   	! EDIFF
  mixing_beta =   4.0000000000d-01      ! MIXING
  mixing_mode = 'local-TF'                 ! MIXING
/
&IONS
  !press_conv_thr = 0.05                 ! just for volume relaxations
/
ATOMIC_SPECIES
Al 26.9815385 Al.pbe-n-kjpaw_psl.1.0.0.UPF
Mg 24.305 Mg.pbe-n-kjpaw_psl.0.3.0.UPF
Si 28.085 Si.pbe-n-rrkjus_psl.1.0.0.UPF

K_POINTS automatic
6 20 13 0 0 0
CELL_PARAMETERS angstrom
14.52865927216863 0.00000000000000 -4.31685675954080
0.00000000000000 4.12158666460227 0.00000000000000
0.00000000000000 0.00000000000000 6.64555081728478

ATOMIC_POSITIONS angstrom
Al 0.0133056318 0.0000000000 6.5639516914 
Mg 1.0579887597 2.0607933323 1.9130756307 
Mg 2.2408511700 2.0607933323 5.3199047537 
Mg 5.0499206576 0.0000000000 -0.9971095675 
Mg 6.2327973556 0.0000000000 2.4097819984 
Si 0.8514329024 0.0000000000 4.0876531760 
Si 2.6633854140 0.0000000000 0.5774746854 
Al 3.1786415597 0.0000000000 3.0983796646 
Al 4.1120847586 2.0607933323 1.2244091714 
Si 4.6272869282 2.0607933323 3.7453030380 
Si 6.4392722488 2.0607933323 0.2351795818 
Al 7.2774339159 2.0607933323 4.4044461714 
Mg 8.3219577615 0.0000000000 -0.2468489977 
Mg 9.5046651229 0.0000000000 3.1610384798 
Mg 12.3147670352 2.0607933323 -3.1550968781 
Mg 13.4974855093 2.0607933323 0.2528509256 
Si 8.1155299651 2.0607933323 1.9283487433 
Si 9.9278745970 2.0607933323 -1.5813222663 
Al 10.4429428848 2.0607933323 0.9396869608 
Al 11.3764416473 0.0000000000 -0.9337511801 
Si 11.8914570174 0.0000000000 1.5872464052 
Si 13.7038333999 0.0000000000 -1.9223700992 

