Al 
 1.0000000000000000
     4.0431640015496999    0.0000000000000000    0.0000000000000000
     0.0000000000000000    4.0431640015496999    0.0000000000000000
     0.0000000000000000    0.0000000000000000    4.0431640015496999
   4
Direct
  0.0000000000000000  0.0000000000000000  0.0000000000000000
  0.0000000000000000  0.4999999999999999  0.4999999999999999
  0.4999999999999999  0.0000000000000000  0.4999999999999999
  0.4999999999999999  0.4999999999999999  0.0000000000000000
