Al 
 1.0000000000000000
     4.0431640015496999    0.0000000000000000    0.0000000000000000
     0.0000000000000000    4.0431640015496999    0.0000000000000000
     0.0000000000000000    0.0000000000000000    4.0431640015496999
   4
Cartesian
  0.0000000000000000  0.0000000000000000  0.0000000000000000
  0.0000000000000000  2.0215820007748495  2.0215820007748495
  2.0215820007748495  0.0000000000000000  2.0215820007748495
  2.0215820007748495  2.0215820007748495  0.0000000000000000
