Al 
 1.0000000000000000
     4.0431472490500475    0.0000000000000000    0.0000000000000000
     0.0000000000000000    4.0431472490500475    0.0000000000000000
     0.0000000000000000    0.0000000000000000    4.0431472490500475
   4
Cartesian
  0.0000000000000000  0.0000000000000000  0.0000000000000000
  0.0000000000000000  2.0215736245250233  2.0215736245250233
  2.0215736245250233  0.0000000000000000  2.0215736245250233
  2.0215736245250233  2.0215736245250233  0.0000000000000000
