&CONTROL
  calculation = 'scf'
  outdir = './out/'
  prefix = 'aiida'
  pseudo_dir = '/users/aglensk/Dropbox/Albert/scripts/dotfiles/scripts/potentials/quantum_espresso/pseudo_SSSPefV1.1_alalloy'
  tprnfor = .true.             	! calculate the pressure of the cell
  tstress = .true.
  verbosity = 'high'
  wf_collect = .true.
  etot_conv_thr = 2.5d-4    ! EDIFFG positive atomic units
  forc_conv_thr = 2.0d-5
/
&SYSTEM
  degauss =   4.4100000000d-02  ! SIGMA in Rydberg  so, 0.60001101eV
  ecutrho = 400                 ! AUGMENTATION charges
  ecutwfc =  40                 ! ENCUT in Rydberg, so 544eV
  ibrav = 0                     ! no symmetry
   nat              = 256
   ntyp             = 2
  occupations = 'smearing'      ! using smearing 
  smearing = 'mp'               ! methfessel paxton
  nosym= .true. 		! no symmetry
/
&ELECTRONS
  conv_thr =   1.0000000000d-12   	! EDIFF
  mixing_beta =   4.0000000000d-01      ! MIXING
  mixing_mode = 'local-TF'                 ! MIXING
/
&IONS
  !press_conv_thr = 0.05                 ! just for volume relaxations
/
ATOMIC_SPECIES
Mg 24.305 Mg.pbe-n-kjpaw_psl.0.3.0.UPF
Al 26.9815385 Al.pbe-n-kjpaw_psl.1.0.0.UPF

K_POINTS automatic
5 5 5 0 0 0
CELL_PARAMETERS angstrom
16.22799863997135 0.00000000000000 0.00000000000000
0.00000000000000 16.22799863997135 0.00000000000000
0.00000000000000 0.00000000000000 16.22799863997135

ATOMIC_POSITIONS angstrom
Mg 0.0000000000 0.0000000000 0.0000000000 
Al 2.0517724484 2.0517724484 0.0000000000 
Al 2.0517724484 0.0000000000 2.0517724484 
Al 0.0000000000 2.0517724484 2.0517724484 
Al 0.0000000000 0.0000000000 4.0595131194 
Al 2.0298020690 2.0298020690 4.0612482915 
Al 2.0284981763 0.0000000000 6.0867322744 
Al 0.0000000000 2.0284981763 6.0867322744 
Al 0.0000000000 0.0000000000 8.1139995846 
Al 2.0284696007 2.0284696007 8.1139995846 
Al 2.0284981763 0.0000000000 10.1412663655 
Al 0.0000000000 2.0284981763 10.1412663655 
Al 0.0000000000 0.0000000000 12.1684860497 
Al 2.0298020690 2.0298020690 12.1667503484 
Al 2.0517724484 0.0000000000 14.1762267208 
Al 0.0000000000 2.0517724484 14.1762267208 
Al 0.0000000000 4.0595131194 0.0000000000 
Al 2.0284981763 6.0867322744 0.0000000000 
Al 2.0298020690 4.0612482915 2.0298020690 
Al 0.0000000000 6.0867322744 2.0284981763 
Al 0.0000000000 4.0586690818 4.0586690818 
Al 2.0284156247 6.0853939853 4.0572625288 
Al 2.0284156247 4.0572625288 6.0853939853 
Al 0.0000000000 6.0855442716 6.0855442716 
Al 0.0000000000 4.0574175777 8.1139995846 
Al 2.0285701444 6.0855024666 8.1139995846 
Al 2.0284156247 4.0572625288 10.1426046547 
Al 0.0000000000 6.0855442716 10.1424543684 
Al 0.0000000000 4.0586690818 12.1693300874 
Al 2.0284156247 6.0853939853 12.1707366404 
Al 2.0298020690 4.0612482915 14.1981965710 
Al 0.0000000000 6.0867322744 14.1995004637 
Al 0.0000000000 8.1139995846 0.0000000000 
Al 2.0284981763 10.1412663655 0.0000000000 
Al 2.0284696007 8.1139995846 2.0284696007 
Al 0.0000000000 10.1412663655 2.0284981763 
Al 0.0000000000 8.1139995846 4.0574175777 
Al 2.0284156247 10.1426046547 4.0572625288 
Al 2.0285701444 8.1139995846 6.0855024666 
Al 0.0000000000 10.1424543684 6.0855442716 
Al 0.0000000000 8.1139995846 8.1139995846 
Al 2.0285701444 10.1424961734 8.1139995846 
Al 2.0285701444 8.1139995846 10.1424961734 
Al 0.0000000000 10.1424543684 10.1424543684 
Al 0.0000000000 8.1139995846 12.1705815915 
Al 2.0284156247 10.1426046547 12.1707366404 
Al 2.0284696007 8.1139995846 14.1995290392 
Al 0.0000000000 10.1412663655 14.1995004637 
Al 0.0000000000 12.1684860497 0.0000000000 
Al 2.0517724484 14.1762267208 0.0000000000 
Al 2.0298020690 12.1667503484 2.0298020690 
Al 0.0000000000 14.1762267208 2.0517724484 
Al 0.0000000000 12.1693300874 4.0586690818 
Al 2.0298020690 14.1981965710 4.0612482915 
Al 2.0284156247 12.1707366404 6.0853939853 
Al 0.0000000000 14.1995004637 6.0867322744 
Al 0.0000000000 12.1705815915 8.1139995846 
Al 2.0284696007 14.1995290392 8.1139995846 
Al 2.0284156247 12.1707366404 10.1426046547 
Al 0.0000000000 14.1995004637 10.1412663655 
Al 0.0000000000 12.1693300874 12.1693300874 
Al 2.0298020690 14.1981965710 12.1667503484 
Al 2.0298020690 12.1667503484 14.1981965710 
Al 0.0000000000 14.1762267208 14.1762267208 
Al 4.0595131194 0.0000000000 0.0000000000 
Al 6.0867322744 2.0284981763 0.0000000000 
Al 6.0867322744 0.0000000000 2.0284981763 
Al 4.0612482915 2.0298020690 2.0298020690 
Al 4.0586690818 0.0000000000 4.0586690818 
Al 6.0853939853 2.0284156247 4.0572625288 
Al 6.0855442716 0.0000000000 6.0855442716 
Al 4.0572625288 2.0284156247 6.0853939853 
Al 4.0574175777 0.0000000000 8.1139995846 
Al 6.0855024666 2.0285701444 8.1139995846 
Al 6.0855442716 0.0000000000 10.1424543684 
Al 4.0572625288 2.0284156247 10.1426046547 
Al 4.0586690818 0.0000000000 12.1693300874 
Al 6.0853939853 2.0284156247 12.1707366404 
Al 6.0867322744 0.0000000000 14.1995004637 
Al 4.0612482915 2.0298020690 14.1981965710 
Al 4.0586690818 4.0586690818 0.0000000000 
Al 6.0855442716 6.0855442716 0.0000000000 
Al 6.0853939853 4.0572625288 2.0284156247 
Al 4.0572625288 6.0853939853 2.0284156247 
Al 4.0571323512 4.0571323512 4.0571323512 
Al 6.0853765224 6.0853765224 4.0568370703 
Al 6.0853765224 4.0568370703 6.0853765224 
Al 4.0568370703 6.0853765224 6.0853765224 
Al 4.0571397597 4.0571397597 8.1139995846 
Al 6.0856120063 6.0856120063 8.1139995846 
Al 6.0853765224 4.0568370703 10.1426221175 
Al 4.0568370703 6.0853765224 10.1426221175 
Al 4.0571323512 4.0571323512 12.1708662888 
Al 6.0853765224 6.0853765224 12.1711620989 
Al 6.0853939853 4.0572625288 14.1995830153 
Al 4.0572625288 6.0853939853 14.1995830153 
Al 4.0574175777 8.1139995846 0.0000000000 
Al 6.0855442716 10.1424543684 0.0000000000 
Al 6.0855024666 8.1139995846 2.0285701444 
Al 4.0572625288 10.1426046547 2.0284156247 
Al 4.0571397597 8.1139995846 4.0571397597 
Al 6.0853765224 10.1426221175 4.0568370703 
Al 6.0856120063 8.1139995846 6.0856120063 
Al 4.0568370703 10.1426221175 6.0853765224 
Al 4.0572074943 8.1139995846 8.1139995846 
Al 6.0856120063 10.1423871629 8.1139995846 
Al 6.0856120063 8.1139995846 10.1423871629 
Al 4.0568370703 10.1426221175 10.1426221175 
Al 4.0571397597 8.1139995846 12.1708588803 
Al 6.0853765224 10.1426221175 12.1711620989 
Al 6.0855024666 8.1139995846 14.1994290247 
Al 4.0572625288 10.1426046547 14.1995830153 
Al 4.0586690818 12.1693300874 0.0000000000 
Al 6.0867322744 14.1995004637 0.0000000000 
Al 6.0853939853 12.1707366404 2.0284156247 
Al 4.0612482915 14.1981965710 2.0298020690 
Al 4.0571323512 12.1708662888 4.0571323512 
Al 6.0853939853 14.1995830153 4.0572625288 
Al 6.0853765224 12.1711620989 6.0853765224 
Al 4.0572625288 14.1995830153 6.0853939853 
Al 4.0571397597 12.1708588803 8.1139995846 
Al 6.0855024666 14.1994290247 8.1139995846 
Al 6.0853765224 12.1711620989 10.1426221175 
Al 4.0572625288 14.1995830153 10.1426046547 
Al 4.0571323512 12.1708662888 12.1708662888 
Al 6.0853939853 14.1995830153 12.1707366404 
Al 6.0853939853 12.1707366404 14.1995830153 
Al 4.0612482915 14.1981965710 14.1981965710 
Al 8.1139995846 0.0000000000 0.0000000000 
Al 10.1412663655 2.0284981763 0.0000000000 
Al 10.1412663655 0.0000000000 2.0284981763 
Al 8.1139995846 2.0284696007 2.0284696007 
Al 8.1139995846 0.0000000000 4.0574175777 
Al 10.1426046547 2.0284156247 4.0572625288 
Al 10.1424543684 0.0000000000 6.0855442716 
Al 8.1139995846 2.0285701444 6.0855024666 
Al 8.1139995846 0.0000000000 8.1139995846 
Al 10.1424961734 2.0285701444 8.1139995846 
Al 10.1424543684 0.0000000000 10.1424543684 
Al 8.1139995846 2.0285701444 10.1424961734 
Al 8.1139995846 0.0000000000 12.1705815915 
Al 10.1426046547 2.0284156247 12.1707366404 
Al 10.1412663655 0.0000000000 14.1995004637 
Al 8.1139995846 2.0284696007 14.1995290392 
Al 8.1139995846 4.0574175777 0.0000000000 
Al 10.1424543684 6.0855442716 0.0000000000 
Al 10.1426046547 4.0572625288 2.0284156247 
Al 8.1139995846 6.0855024666 2.0285701444 
Al 8.1139995846 4.0571397597 4.0571397597 
Al 10.1426221175 6.0853765224 4.0568370703 
Al 10.1426221175 4.0568370703 6.0853765224 
Al 8.1139995846 6.0856120063 6.0856120063 
Al 8.1139995846 4.0572074943 8.1139995846 
Al 10.1423871629 6.0856120063 8.1139995846 
Al 10.1426221175 4.0568370703 10.1426221175 
Al 8.1139995846 6.0856120063 10.1423871629 
Al 8.1139995846 4.0571397597 12.1708588803 
Al 10.1426221175 6.0853765224 12.1711620989 
Al 10.1426046547 4.0572625288 14.1995830153 
Al 8.1139995846 6.0855024666 14.1994290247 
Al 8.1139995846 8.1139995846 0.0000000000 
Al 10.1424543684 10.1424543684 0.0000000000 
Al 10.1424961734 8.1139995846 2.0285701444 
Al 8.1139995846 10.1424961734 2.0285701444 
Al 8.1139995846 8.1139995846 4.0572074943 
Al 10.1426221175 10.1426221175 4.0568370703 
Al 10.1423871629 8.1139995846 6.0856120063 
Al 8.1139995846 10.1423871629 6.0856120063 
Al 8.1139995846 8.1139995846 8.1139995846 
Al 10.1423871629 10.1423871629 8.1139995846 
Al 10.1423871629 8.1139995846 10.1423871629 
Al 8.1139995846 10.1423871629 10.1423871629 
Al 8.1139995846 8.1139995846 12.1707916748 
Al 10.1426221175 10.1426221175 12.1711620989 
Al 10.1424961734 8.1139995846 14.1994290247 
Al 8.1139995846 10.1424961734 14.1994290247 
Al 8.1139995846 12.1705815915 0.0000000000 
Al 10.1412663655 14.1995004637 0.0000000000 
Al 10.1426046547 12.1707366404 2.0284156247 
Al 8.1139995846 14.1995290392 2.0284696007 
Al 8.1139995846 12.1708588803 4.0571397597 
Al 10.1426046547 14.1995830153 4.0572625288 
Al 10.1426221175 12.1711620989 6.0853765224 
Al 8.1139995846 14.1994290247 6.0855024666 
Al 8.1139995846 12.1707916748 8.1139995846 
Al 10.1424961734 14.1994290247 8.1139995846 
Al 10.1426221175 12.1711620989 10.1426221175 
Al 8.1139995846 14.1994290247 10.1424961734 
Al 8.1139995846 12.1708588803 12.1708588803 
Al 10.1426046547 14.1995830153 12.1707366404 
Al 10.1426046547 12.1707366404 14.1995830153 
Al 8.1139995846 14.1995290392 14.1995290392 
Al 12.1684860497 0.0000000000 0.0000000000 
Al 14.1762267208 2.0517724484 0.0000000000 
Al 14.1762267208 0.0000000000 2.0517724484 
Al 12.1667503484 2.0298020690 2.0298020690 
Al 12.1693300874 0.0000000000 4.0586690818 
Al 14.1981965710 2.0298020690 4.0612482915 
Al 14.1995004637 0.0000000000 6.0867322744 
Al 12.1707366404 2.0284156247 6.0853939853 
Al 12.1705815915 0.0000000000 8.1139995846 
Al 14.1995290392 2.0284696007 8.1139995846 
Al 14.1995004637 0.0000000000 10.1412663655 
Al 12.1707366404 2.0284156247 10.1426046547 
Al 12.1693300874 0.0000000000 12.1693300874 
Al 14.1981965710 2.0298020690 12.1667503484 
Al 14.1762267208 0.0000000000 14.1762267208 
Al 12.1667503484 2.0298020690 14.1981965710 
Al 12.1693300874 4.0586690818 0.0000000000 
Al 14.1995004637 6.0867322744 0.0000000000 
Al 14.1981965710 4.0612482915 2.0298020690 
Al 12.1707366404 6.0853939853 2.0284156247 
Al 12.1708662888 4.0571323512 4.0571323512 
Al 14.1995830153 6.0853939853 4.0572625288 
Al 14.1995830153 4.0572625288 6.0853939853 
Al 12.1711620989 6.0853765224 6.0853765224 
Al 12.1708588803 4.0571397597 8.1139995846 
Al 14.1994290247 6.0855024666 8.1139995846 
Al 14.1995830153 4.0572625288 10.1426046547 
Al 12.1711620989 6.0853765224 10.1426221175 
Al 12.1708662888 4.0571323512 12.1708662888 
Al 14.1995830153 6.0853939853 12.1707366404 
Al 14.1981965710 4.0612482915 14.1981965710 
Al 12.1707366404 6.0853939853 14.1995830153 
Al 12.1705815915 8.1139995846 0.0000000000 
Al 14.1995004637 10.1412663655 0.0000000000 
Al 14.1995290392 8.1139995846 2.0284696007 
Al 12.1707366404 10.1426046547 2.0284156247 
Al 12.1708588803 8.1139995846 4.0571397597 
Al 14.1995830153 10.1426046547 4.0572625288 
Al 14.1994290247 8.1139995846 6.0855024666 
Al 12.1711620989 10.1426221175 6.0853765224 
Al 12.1707916748 8.1139995846 8.1139995846 
Al 14.1994290247 10.1424961734 8.1139995846 
Al 14.1994290247 8.1139995846 10.1424961734 
Al 12.1711620989 10.1426221175 10.1426221175 
Al 12.1708588803 8.1139995846 12.1708588803 
Al 14.1995830153 10.1426046547 12.1707366404 
Al 14.1995290392 8.1139995846 14.1995290392 
Al 12.1707366404 10.1426046547 14.1995830153 
Al 12.1693300874 12.1693300874 0.0000000000 
Al 14.1762267208 14.1762267208 0.0000000000 
Al 14.1981965710 12.1667503484 2.0298020690 
Al 12.1667503484 14.1981965710 2.0298020690 
Al 12.1708662888 12.1708662888 4.0571323512 
Al 14.1981965710 14.1981965710 4.0612482915 
Al 14.1995830153 12.1707366404 6.0853939853 
Al 12.1707366404 14.1995830153 6.0853939853 
Al 12.1708588803 12.1708588803 8.1139995846 
Al 14.1995290392 14.1995290392 8.1139995846 
Al 14.1995830153 12.1707366404 10.1426046547 
Al 12.1707366404 14.1995830153 10.1426046547 
Al 12.1708662888 12.1708662888 12.1708662888 
Al 14.1981965710 14.1981965710 12.1667503484 
Al 14.1981965710 12.1667503484 14.1981965710 
Al 12.1667503484 14.1981965710 14.1981965710 

