Al 
 1.0000000000000000
     4.0459873558125263    0.0000000000000000    0.0000000000000000
     0.0000000000000000    4.0459873558125263    0.0000000000000000
     0.0000000000000000    0.0000000000000000    4.0459873558125263
   4
Cartesian
  0.0000000000000000  0.0000000000000000  0.0000000000000000
  0.0000000000000000  2.0229936779062627  2.0229936779062627
  2.0229936779062627  0.0000000000000000  2.0229936779062627
  2.0229936779062627  2.0229936779062627  0.0000000000000000
