&CONTROL
  calculation = 'scf'
  outdir = './out/'
  prefix = 'aiida'
  pseudo_dir = '/users/aglensk/Dropbox/Albert/scripts/dotfiles/scripts/potentials/quantum_espresso/pseudo_SSSPefV1.1_alalloy'
  tprnfor = .true.             	! calculate the pressure of the cell
  tstress = .true.
  verbosity = 'high'
  wf_collect = .true.
  etot_conv_thr = 2.5d-4    ! EDIFFG positive atomic units
  forc_conv_thr = 2.0d-5
/
&SYSTEM
  degauss =   4.4100000000d-02  ! SIGMA in Rydberg  so, 0.60001101eV
  ecutrho = 400                 ! AUGMENTATION charges
  ecutwfc =  40                 ! ENCUT in Rydberg, so 544eV
  ibrav = 0                     ! no symmetry
   nat              = 264
   ntyp             = 3
  occupations = 'smearing'      ! using smearing 
  smearing = 'mp'               ! methfessel paxton
  nosym= .true. 		! no symmetry
/
&ELECTRONS
  conv_thr =   1.0000000000d-12   	! EDIFF
  mixing_beta =   4.0000000000d-01      ! MIXING
  mixing_mode = 'local-TF'                 ! MIXING
/
&IONS
  !press_conv_thr = 0.05                 ! just for volume relaxations
/
ATOMIC_SPECIES
Mg 24.305 Mg.pbe-n-kjpaw_psl.0.3.0.UPF
Si 28.085 Si.pbe-n-rrkjus_psl.1.0.0.UPF
Al 26.9815385 Al.pbe-n-kjpaw_psl.1.0.0.UPF

K_POINTS automatic
6 2 13 0 0 0
CELL_PARAMETERS angstrom
8.11399588033381 0.00000000000000 12.17099329132350
0.00000000000000 50.07669826128345 0.00000000000000
-6.08549717483896 0.00000000000000 2.02849870549485

ATOMIC_POSITIONS angstrom
Mg -5.9352960446 0.3119330320 2.0280229752 
Mg -1.5375868282 2.1315639049 1.6888135039 
Mg -4.1928340259 2.1677601553 3.6973585243 
Mg 2.3579559700 0.1536899956 4.4313913458 
Mg -0.3108053553 0.1422888726 6.4618612364 
Si -3.3800469352 50.0507923909 2.0508934850 
Si 0.2631608852 0.0723993801 2.6881551409 
Al -1.9092332750 50.0192317329 4.0637195491 
Al 0.0694254041 2.1922906941 4.1338858013 
Si -2.1025702855 2.2215854153 5.4065151877 
Si 1.5905278331 2.2614329884 6.0527241718 
Mg -1.9484352519 2.2920353065 8.1108684430 
Mg 2.4769467575 0.1554727936 7.7112650351 
Mg -0.1834228755 0.1099228069 9.7577938665 
Mg 6.4200710537 2.1018379043 10.4988028311 
Mg 3.7958050650 2.1110133079 12.4700810757 
Si 0.5960694434 2.2373268497 8.1585875272 
Si 4.3098118233 2.2004934700 8.7879549174 
Al 2.1361883846 2.1482557417 10.0677408964 
Al 4.0993379380 50.0071500880 10.1113826701 
Si 1.9464810005 50.0686404799 11.5074653955 
Si 5.7205903290 49.8549878270 12.0469091731 
Mg -5.9905982381 4.1865061248 2.0156809751 
Mg -1.4890131229 6.4083720040 1.5941214755 
Mg -4.2442107829 6.4332623833 3.6582565619 
Mg 2.3851085818 4.3580495011 4.4250168771 
Mg -0.3660255264 4.3692061443 6.4806734863 
Si -3.4443567832 4.2934147383 2.0584014513 
Si 0.2744985069 4.3261893288 2.6979644988 
Al -1.9096201035 4.3390652687 3.9623276080 
Al 0.0521662894 6.4619691886 4.1322061929 
Si -2.1339833031 6.4743593438 5.3986854817 
Si 1.5828589969 6.4865002565 6.0405927843 
Mg -1.9501439651 6.4700327909 8.1123607228 
Mg 2.5509008602 4.3643837524 7.7201250491 
Mg -0.1907837305 4.3425091540 9.7722393460 
Mg 6.4393569172 6.4084720185 10.5303894188 
Mg 3.6802825049 6.4089429862 12.5900476660 
Si 0.6031657098 6.4742842006 8.1534068823 
Si 4.3216659220 6.4582220847 8.7968064646 
Al 2.1355163295 6.4437078122 10.0614050576 
Al 4.1088530734 4.3178150995 10.2278958500 
Si 1.9248699324 4.2959669600 11.4878260417 
Si 5.6583236342 4.2499608225 12.1213654650 
Mg -6.0071995856 8.5656645049 2.0234778721 
Mg -1.5037141950 10.6924753401 1.6134337978 
Mg -4.2463476005 10.7041939694 3.6714351911 
Mg 2.3737836603 8.6051966884 4.4334874167 
Mg -0.3720613217 8.6021793199 6.4911448449 
Si -3.4563807478 8.5663370891 2.0623739846 
Si 0.2642472860 8.5870639021 2.6993609975 
Al -1.9203687510 8.5900601035 3.9604114573 
Al 0.0469120889 10.7173868864 4.1419583997 
Si -2.1375827665 10.7221664150 5.4041037272 
Si 1.5826076377 10.7392281466 6.0430201201 
Mg -1.9512621165 10.7301527575 8.1115320312 
Mg 2.5534678989 8.6017014729 7.7024970979 
Mg -0.1902863040 8.5914841193 9.7611768964 
Mg 6.4306297266 10.6893352025 10.5237244319 
Mg 3.6855779813 10.6931013567 12.5796673259 
Si 0.6001869713 10.7238465526 8.1514462807 
Si 4.3201122577 10.7114728019 8.7912633333 
Al 2.1354840497 10.7072325049 10.0529747355 
Al 4.1030093694 8.5778398141 10.2313132764 
Si 1.9186838508 8.5729322247 11.4919864329 
Si 5.6410264187 8.5428601422 12.1275383171 
Mg -6.0081981430 12.8256590564 2.0263650630 
Mg -1.5031299833 14.9536367274 1.6173253670 
Mg -4.2469524500 14.9638218011 3.6758268328 
Mg 2.3739651681 12.8665395835 4.4382611244 
Mg -0.3708944859 12.8625834546 6.4940367984 
Si -3.4567204796 12.8314366132 2.0662046985 
Si 0.2632238573 12.8443067321 2.7061678039 
Al -1.9214144052 12.8486216431 3.9677876585 
Al 0.0466348000 14.9782508761 4.1458526148 
Si -2.1377314653 14.9832590093 5.4063913603 
Si 1.5849608888 15.0135940929 6.0417993083 
Mg -1.9493041609 14.9901721803 8.1087919516 
Mg 2.5538483773 12.8630914648 7.6986891386 
Mg -0.1887982577 12.8510362787 9.7566217389 
Mg 6.4314187299 14.9500076301 10.5188231925 
Mg 3.6854451578 14.9528630703 12.5765070796 
Si 0.6014924515 14.9890699042 8.1475970457 
Si 4.3220352877 14.9683123990 8.7846724311 
Al 2.1373795625 14.9653712320 10.0456874361 
Al 4.1043127329 12.8380709079 10.2273841356 
Si 1.9197623139 12.8334252612 11.4896051354 
Si 5.6397087675 12.8167403037 12.1287279075 
Mg -6.0064899589 17.0849720277 2.0266534646 
Mg -1.5052784428 19.1899468945 1.6345627855 
Mg -4.2467524210 19.2125782163 3.6868612360 
Mg 2.3833622970 17.1477335033 4.4446488225 
Mg -0.3754247720 17.1466640361 6.5039874466 
Si -3.4531734047 17.0807020968 2.0677848216 
Si 0.2655924545 17.0975442199 2.7110256507 
Al -1.9205947097 17.1122124830 3.9756507027 
Al 0.0527076377 19.2378427238 4.1421674247 
Si -2.1311389756 19.2596829257 5.4023849596 
Si 1.6022983218 19.3061669102 6.0355322626 
Mg -1.9326049156 19.3689887119 8.1010358013 
Mg 2.5687156110 17.1472180847 7.6794043336 
Mg -0.1865720091 17.1220228993 9.7433182239 
Mg 6.4430738579 19.1967410007 10.5102790973 
Mg 3.6919990175 19.1853086563 12.5659357064 
Si 0.6136682899 19.2615334584 8.1436044036 
Si 4.3324494952 19.2288017312 8.7832272482 
Al 2.1482753212 19.2159025075 10.0476120536 
Al 4.1098722687 17.0933155648 10.2174842883 
Si 1.9236787544 17.0808777837 11.4839842151 
Si 5.6405088834 17.0684601112 12.1259005137 
Mg -6.0045150696 21.2618137891 2.0252040482 
Mg -1.5789954741 23.3980429203 1.6255598936 
Mg -4.2395111601 23.4446824830 3.6724025271 
Mg 2.3637568105 21.4542342648 4.4131553700 
Mg -0.2599720633 21.4437681979 6.3844029222 
Si -3.4600437125 21.3172525104 2.0733237195 
Si 0.2537177178 21.3547246071 2.7020735599 
Al -1.9197231548 21.4069379932 3.9823495570 
Al 0.0432861666 23.6241714551 4.0259818055 
Si -2.1093855588 23.5629752858 5.4225503156 
Si 1.6656900473 23.7788949338 5.9611960940 
Mg -1.8767158645 23.2410968973 8.1137598673 
Mg 2.5206303363 21.4228365934 7.7745916718 
Mg -0.1346999422 21.3865350367 9.7828366488 
Mg 6.4155825726 23.3998818111 10.5170615616 
Mg 3.7468339476 23.4116126115 12.5475917784 
Si 0.6783094029 23.5792263179 8.1357477096 
Si 4.3211298655 23.4812316945 8.7734665745 
Al 2.1482790255 23.6112685272 10.1491749189 
Al 4.1275377915 21.3620399528 10.2195639548 
Si 1.9554786006 21.3327023683 11.4920890933 
Si 5.6484460124 21.2926076694 12.1384996939 
Al -4.0584314812 29.7758829868 2.0130133928 
Al 2.0201244761 27.7552716676 14.1766331289 
Al -4.0709041881 27.7468757420 4.0402320186 
Al -0.0007482566 29.7545021108 2.0163106960 
Al 1.9988510231 29.7604638212 4.0422328376 
Al -0.0199732646 27.6811424073 4.0555776285 
Al 1.9077235324 27.7594468758 6.0500708773 
Al 2.0245282889 29.7465602192 8.1005320246 
Al 2.0060557708 27.7145922279 10.1406583409 
Al 4.0487665887 27.7605375100 12.1450943003 
Al 2.0152899131 29.7625937595 12.1583327266 
Al 6.0734202925 29.7715040454 12.1448577581 
Al -2.0329115143 27.7695594523 2.0023832810 
Al -2.0280309128 29.7669573548 4.0290124034 
Al -0.0447879716 29.7620682865 6.0791973201 
Al -2.0756838498 27.7566480575 6.0191616364 
Al 0.0062024861 27.7300579611 8.1311385761 
Al 4.0273306782 29.7303949138 6.0767477588 
Al -0.0005619862 29.7563081926 10.1284989070 
Al 4.0799081383 27.7514769378 8.1670638877 
Al 4.0427715400 29.7649189642 10.1387480112 
Al 6.0860337605 27.7138524382 10.1114853305 
Al -4.0618071027 33.7931196097 2.0153994528 
Al 2.0218580607 31.7763982722 14.1874198771 
Al -4.0650260876 31.7790827882 4.0442939829 
Al -0.0045906123 33.7935154343 2.0154386119 
Al 2.0200080572 33.7914759853 4.0466123082 
Al -0.0131235948 31.7796299574 4.0453952006 
Al 2.0127551543 31.7693178811 6.0767631050 
Al 2.0213648675 33.7851258588 8.1000340688 
Al 2.0230397134 31.7780429550 10.1270145649 
Al 4.0494629859 31.7831743864 12.1568510304 
Al 2.0222586478 33.7932751878 12.1576850137 
Al 6.0808446488 33.7942890913 12.1562001424 
Al -2.0323923914 31.7818493267 2.0108617582 
Al -2.0350673822 33.7926661048 4.0437118879 
Al -0.0110889084 33.7857360001 6.0743706948 
Al -2.0514485919 31.7747445934 6.0773319705 
Al -0.0133617246 31.7664677327 8.1016131336 
Al 4.0479786438 33.7865546372 6.0734308761 
Al -0.0068798329 33.7900477360 10.1269632347 
Al 4.0507959833 31.7717526255 8.0980062617 
Al 4.0508330257 33.7934598707 10.1282745358 
Al 6.0789062727 31.7798553869 10.1246729557 
Al -4.0625924016 37.8257542311 2.0153057885 
Al 2.0236747260 35.8095678918 14.1861683730 
Al -4.0633866966 35.8077464638 4.0442442402 
Al -0.0058828630 37.8229919261 2.0163281588 
Al 2.0244319786 37.8202259168 4.0422206666 
Al -0.0071544759 35.8060287546 4.0446278937 
Al 2.0218072597 35.8031775478 6.0732742396 
Al 2.0221152408 37.8202417921 8.1004579398 
Al 2.0240234538 35.8065865074 10.1287301574 
Al 4.0531666972 35.8087746551 12.1571172065 
Al 2.0226407138 37.8237714041 12.1576585548 
Al 6.0793608359 37.8258240825 12.1589513347 
Al -2.0346096439 35.8087127414 2.0154640124 
Al -2.0325209815 37.8222420820 4.0433393472 
Al -0.0039825877 37.8200438798 6.0713787269 
Al -2.0345948270 35.8052704436 6.0718084188 
Al -0.0058960925 35.8031706685 8.1005653627 
Al -2.0333179224 37.8191665040 8.0999240000 
Al -0.0060040446 37.8211652063 10.1295435028 
Al 4.0508129169 35.8058779391 8.1012374178 
Al 4.0502138883 37.8229744632 10.1298631258 
Al 6.0814039891 35.8085275294 10.1276813282 
Al -4.0696309877 41.8626598418 2.0164149439 
Al 8.1056359388 39.8424819187 12.1594159523 
Al -4.0636131845 39.8387961995 4.0413454075 
Al -0.0052780135 41.8572066706 2.0131298118 
Al 2.0227084485 41.8491197845 4.0390911125 
Al -0.0058410581 39.8352443620 4.0426371290 
Al 2.0241340519 39.8344304875 6.0701854323 
Al 2.0249606267 41.8474370009 8.0960022676 
Al 2.0222041426 39.8365265584 10.1290561306 
Al 4.0467594195 39.8434735968 12.1599112622 
Al 2.0064896961 41.8547422923 12.1633630851 
Al 6.0709246928 41.8599134120 12.1624587213 
Al -2.0347551677 39.8438138578 2.0147337479 
Al -2.0329448524 41.8509036409 4.0414427761 
Al -0.0070047187 41.8457621551 6.0709850190 
Al -2.0342577411 39.8354184613 6.0713781977 
Al -0.0043879374 39.8357015711 8.1004944530 
Al -2.0343805102 41.8527033725 8.1009479579 
Al -0.0069660888 41.8504104477 10.1297202480 
Al 4.0528354322 39.8355952065 8.1000996868 
Al 4.0449152369 41.8499072002 10.1307124552 
Al 6.0775992050 39.8377875877 10.1318057354 
Al -4.0495402457 45.8995527522 2.0460769141 
Al 8.0855917644 43.8992983511 12.1630328785 
Al -4.0567116553 43.8731326548 4.0432202823 
Al 0.0235086976 45.8779205170 2.0828023417 
Al 2.0299423009 45.9155873508 4.0263733966 
Al -0.0135046024 43.8642541195 4.0535466464 
Al 2.0173552918 43.8578060952 6.0592034176 
Al 2.0249759728 45.8604010471 8.0877539825 
Al 2.0297015253 43.8628925466 10.1144889403 
Al 4.0135884752 43.8678668123 12.1649331539 
Al 1.9823438692 45.8737786469 12.1051393042 
Al 5.9658496784 45.8713333191 12.1358178238 
Al -2.0311207786 43.8826689573 2.0154354369 
Al -2.0499986464 45.9154365353 4.0553691327 
Al -0.0073264585 45.8689890640 6.0594066216 
Al -2.0408105425 43.8671630066 6.0722333481 
Al -0.0006000870 43.8537891110 8.0982719087 
Al -2.0354944282 45.8744380018 8.0909613255 
Al -0.0124711193 45.8837409371 10.1260556958 
Al 4.0573995857 43.8751186568 8.1012548806 
Al 4.0385312430 45.9491911620 10.1407387758 
Al 6.0570793003 43.8695781714 10.1279094036 
Al -4.0786867973 25.7885401137 1.9856078342 
Al 7.9910733061 47.6474801131 12.1754537260 
Al -4.1418425099 48.1122109479 3.9785093179 
Al 0.0365338654 25.7311556078 2.0313800754 
Al 2.0555714116 25.6471868264 4.0115834228 
Al 0.0291698354 47.9437886587 4.1108877598 
Al 2.0428701002 47.8643004208 6.0820823943 
Al 2.0737190148 25.7839166924 8.1130729953 
Al 2.0079190038 47.9294511314 10.0094239802 
Al 3.8505537393 47.9894423642 12.2476678941 
Al 2.0014873840 25.7187416396 12.0965936214 
Al 6.0987165507 25.7654547579 12.1676446579 
Al -1.9818326840 47.8467878301 2.0280404380 
Al -2.0498097301 25.7008734419 3.9231213977 
Al -0.2074993803 25.6412436371 6.1616013246 
Al -2.0548639017 47.9114585770 6.0113044132 
Al -0.0204304737 47.8417675259 8.0709319681 
Al 3.9314829268 25.9820152395 6.0884658590 
Al -0.0855330293 25.5176775834 10.0626687328 
Al 4.0945065500 47.8993324813 8.1166740462 
Al 4.0854443903 25.6864078537 10.1956393239 
Al 6.1137028493 47.9847967175 10.0988496370 

