Al 
 1.0000000000000000
     4.0422969030837672    0.0000000000000000    0.0000000000000000
     0.0000000000000000    4.0422969030837672    0.0000000000000000
     0.0000000000000000    0.0000000000000000    4.0422969030837672
   4
Cartesian
  0.0000000000000000  0.0000000000000000  0.0000000000000000
  0.0000000000000000  2.0211484515418832  2.0211484515418832
  2.0211484515418832  0.0000000000000000  2.0211484515418832
  2.0211484515418832  2.0211484515418832  0.0000000000000000
