&CONTROL
  calculation = 'scf'
  outdir = './out/'
  prefix = 'aiida'
  pseudo_dir = '/users/aglensk/Dropbox/Albert/scripts/dotfiles/scripts/potentials/quantum_espresso/pseudo_SSSPefV1.1_alalloy'
  tprnfor = .true.             	! calculate the pressure of the cell
  tstress = .true.
  verbosity = 'high'
  wf_collect = .true.
  etot_conv_thr = 2.5d-4    ! EDIFFG positive atomic units
  forc_conv_thr = 2.0d-5
/
&SYSTEM
  degauss =   4.4100000000d-02  ! SIGMA in Rydberg  so, 0.60001101eV
  ecutrho = 400                 ! AUGMENTATION charges
  ecutwfc =  40                 ! ENCUT in Rydberg, so 544eV
  ibrav = 0                     ! no symmetry
   nat              = 96
   ntyp             = 3
  occupations = 'smearing'      ! using smearing 
  smearing = 'mp'               ! methfessel paxton
  nosym= .true. 		! no symmetry
/
&ELECTRONS
  conv_thr =   1.0000000000d-12   	! EDIFF
  mixing_beta =   4.0000000000d-01      ! MIXING
  mixing_mode = 'local-TF'                 ! MIXING
/
&IONS
  !press_conv_thr = 0.05                 ! just for volume relaxations
/
ATOMIC_SPECIES
Al 26.9815385 Al.pbe-n-kjpaw_psl.1.0.0.UPF
Mg 24.305 Mg.pbe-n-kjpaw_psl.0.3.0.UPF
Si 28.085 Si.pbe-n-rrkjus_psl.1.0.0.UPF

K_POINTS automatic
7 10 5 0 0 0
CELL_PARAMETERS angstrom
12.17099911227282 0.00000000000000 0.00000000000000
0.00000000000000 8.11399958457428 0.00000000000000
0.00000000000000 0.00000000000000 16.22799863997135

ATOMIC_POSITIONS angstrom
Al 6.0508831643 1.9968089282 16.1980937774 
Al 4.0291314683 8.0780509891 16.1981117695 
Al 6.0450389312 8.0758628414 1.9784708212 
Al 4.0290986593 1.9988198016 1.9825052682 
Al 6.0407293120 1.9898989322 3.9966854968 
Al 4.0291827984 8.0730105762 3.9986132893 
Al 6.0169226877 8.0612257997 6.0394153650 
Al 4.0288229579 1.9951600121 6.0371637160 
Al 5.9997064363 2.0226486514 8.0842571795 
Al 4.0287668652 8.0746563173 8.0840978971 
Al 6.0168628906 8.0613215808 10.1289587620 
Al 4.0287959699 1.9951547203 10.1310733541 
Al 6.0406647524 1.9900137637 12.1716674631 
Al 4.0289451979 8.0730544979 12.1695412291 
Al 6.0448595401 8.0758628414 14.1899879741 
Al 4.0290912508 1.9988277393 14.1858418707 
Al 10.1144905278 1.9937582216 16.1981885002 
Al 8.0792569840 8.0824294014 16.1981265864 
Al 10.1144233223 8.0796983178 1.9661177084 
Al 8.0769471255 1.9953505158 1.9837340177 
Al 8.0743425152 8.0610728675 3.9688269625 
Al 8.0740953895 8.0611670610 12.1997979944 
Al 10.1143656420 8.0797126056 14.2025151862 
Al 8.0769312502 1.9954230131 14.1846369342 
Al 2.0073940600 1.9966538793 16.1981022443 
Al 12.1499362718 8.0824468642 16.1982091381 
Al 2.0133081445 8.0757861107 1.9781935323 
Al 12.1521238903 1.9953642745 1.9836551703 
Al 2.0173166619 1.9900857318 3.9963224812 
Al 12.1549676887 8.0610051328 3.9684893475 
Al 2.0410978857 8.0612713090 6.0390772208 
Al 2.0578532237 2.0226904564 8.0840296333 
Al 2.0408724562 8.0612596671 10.1288238218 
Al 2.0173410040 1.9900878485 12.1719352268 
Al 12.1549708637 8.0610178331 12.1999810897 
Al 2.0133192572 8.0757384847 14.1902340415 
Al 12.1521905667 1.9953039483 14.1848988769 
Mg 8.0973162147 1.9514991879 6.0541450126 
Mg 12.1317775558 1.9516267196 6.0536142479 
Al 10.1142740944 2.0257612718 3.9451457532 
Si 10.1147990382 8.0206029820 5.7710140379 
Si 7.8287820641 8.0184296512 8.0841682777 
Mg 10.1145286286 1.6477361229 8.0843212099 
Mg 8.0972617094 1.9515346428 10.1144111513 
Mg 12.1319072042 1.9515917940 10.1148826482 
Si 0.2292983063 8.0184285928 8.0838290751 
Si 10.1146201763 8.0209337177 10.3981464464 
Al 10.1145185742 2.0258866868 12.2234104107 
Al 6.0507053608 6.0469492609 16.1980318637 
Al 4.0292632334 4.0223400079 16.1980890149 
Al 6.0556478759 4.0257240962 1.9912287546 
Al 4.0292960424 6.0448992284 1.9910620637 
Al 6.0612412790 6.0532649909 4.0211737014 
Al 4.0291314683 4.0284419504 4.0194798051 
Al 6.0504439472 4.0444458567 6.0386713418 
Al 4.0290457416 6.0521510729 6.0478308702 
Al 6.0245079138 6.0249587728 8.0842063784 
Al 4.0289399061 4.0299601598 8.0840767300 
Al 6.0503762126 4.0444633196 10.1297726365 
Al 4.0289171515 6.0522547916 10.1204109625 
Al 6.0611100431 6.0532311236 12.1471400994 
Al 4.0290097575 4.0285033349 12.1487122849 
Al 6.0555976041 4.0257849516 14.1771337305 
Al 4.0292060822 6.0449420918 14.1772940712 
Al 10.1146937319 6.0556267088 16.1982012004 
Al 8.0751701484 4.0216351439 16.1981408742 
Al 10.1144868236 4.0272708812 1.9590177377 
Al 8.0824129969 6.0531496303 1.9817294944 
Al 10.1144571897 6.0246333288 3.9711045412 
Al 8.0787584991 4.0457465743 4.0040172470 
Al 10.1143862799 4.0976064701 6.0719269545 
Al 8.1006389184 6.1008359055 6.0607798365 
Al 10.1149292158 6.3594749714 8.0844069366 
Al 8.1118955760 4.0937963942 8.0843434353 
Al 10.1144794151 4.0976932552 10.0966260344 
Al 8.1005510749 6.1010047130 10.1077609813 
Al 10.1144852361 6.0247391642 12.1974119344 
Al 8.0787505614 4.0457566287 12.1643965682 
Al 10.1145381538 4.0273047485 14.2095775853 
Al 8.0824881400 6.0530824248 14.1866679163 
Al 2.0077385543 6.0468915806 16.1982139007 
Al 12.1540908420 4.0216118601 16.1981408742 
Al 2.0027399464 4.0257309755 1.9911081022 
Al 12.1466850070 6.0530004023 1.9816210131 
Al 1.9970925672 6.0530321530 4.0208731287 
Al 12.1503924225 4.0457830875 4.0037822923 
Al 2.0076020266 4.0443765345 6.0382675796 
Al 12.1286961569 6.1006760939 6.0603025187 
Al 2.0332094410 6.0251572142 8.0839783031 
Al 12.1172024279 4.0938604247 8.0841756862 
Al 2.0075946181 4.0445506338 10.1297361233 
Al 12.1286009050 6.1009978337 10.1079747689 
Al 1.9970634625 6.0531618014 12.1473517703 
Al 12.1504765617 4.0459624786 12.1645336251 
Al 2.0026939080 4.0257468508 14.1772496203 
Al 12.1468130679 6.0530342697 14.1869203338 

