&CONTROL
  calculation = 'scf'
  outdir = './out/'
  prefix = 'aiida'
  pseudo_dir = '/users/aglensk/Dropbox/Albert/scripts/dotfiles/scripts/potentials/quantum_espresso/pseudo_SSSPefV1.1_alalloy'
  tprnfor = .true.             	! calculate the pressure of the cell
  tstress = .true.
  verbosity = 'high'
  wf_collect = .true.
  etot_conv_thr = 2.5d-4    ! EDIFFG positive atomic units
  forc_conv_thr = 2.0d-5
/
&SYSTEM
  degauss =   4.4100000000d-02  ! SIGMA in Rydberg  so, 0.60001101eV
  ecutrho = 400                 ! AUGMENTATION charges
  ecutwfc =  40                 ! ENCUT in Rydberg, so 544eV
  ibrav = 0                     ! no symmetry
   nat              = 255
   ntyp             = 2
  occupations = 'smearing'      ! using smearing 
  smearing = 'mp'               ! methfessel paxton
  nosym= .true. 		! no symmetry
/
&ELECTRONS
  conv_thr =   1.0000000000d-12   	! EDIFF
  mixing_beta =   4.0000000000d-01      ! MIXING
  mixing_mode = 'local-TF'                 ! MIXING
/
&IONS
  !press_conv_thr = 0.05                 ! just for volume relaxations
/
ATOMIC_SPECIES
Al 26.9815385 Al.pbe-n-kjpaw_psl.1.0.0.UPF
Mg 24.305 Mg.pbe-n-kjpaw_psl.0.3.0.UPF

K_POINTS automatic
5 5 5 0 0 0
CELL_PARAMETERS angstrom
16.22799863997135 0.00000000000000 0.00000000000000
0.00000000000000 16.22799863997135 0.00000000000000
0.00000000000000 0.00000000000000 16.22799863997135

ATOMIC_POSITIONS angstrom
Al 2.0073295004 16.1939619618 2.0609748401 
Mg 1.9524088436 1.9524088436 0.0000000000 
Al 16.1939619618 2.0073295004 2.0609748401 
Al 16.2197900431 16.2197900431 4.0738861017 
Al 2.0291421850 2.0291421850 4.0648826806 
Al 2.0284071578 16.2275070343 6.0913250035 
Al 16.2275070343 2.0284071578 6.0913250035 
Al 16.2271546023 16.2271546023 8.1139995846 
Al 2.0292548997 2.0292548997 8.1139995846 
Al 2.0284071578 16.2275070343 10.1366736365 
Al 16.2275070343 2.0284071578 10.1366736365 
Al 16.2197900431 16.2197900431 12.1541125383 
Al 2.0291421850 2.0291421850 12.1631164885 
Al 2.0073295004 16.1939619618 14.1670237999 
Al 16.1939619618 2.0073295004 14.1670237999 
Al 16.2038448754 4.0735760038 0.0000000000 
Al 2.0276954145 6.0872730936 0.0000000000 
Al 2.0269021779 4.0701236517 2.0433934564 
Al 16.2243938848 6.0940661414 2.0317801334 
Al 16.2246769946 4.0514479296 4.0566629710 
Al 2.0272858313 6.0902957538 4.0630522566 
Al 2.0272281510 4.0577504302 6.0877657575 
Al 16.2275758274 6.0855712596 6.0856839744 
Al 16.2272789590 4.0584447107 8.1139995846 
Al 2.0287770527 6.0873286572 8.1139995846 
Al 2.0272281510 4.0577504302 10.1402328824 
Al 16.2275758274 6.0855712596 10.1423151948 
Al 16.2246769946 4.0514479296 12.1713356690 
Al 2.0272858313 6.0902957538 12.1649463833 
Al 2.0269021779 4.0701236517 14.1846051835 
Al 16.2243938848 6.0940661414 14.1962185066 
Al 16.2279309053 8.1168523789 0.0000000000 
Al 2.0277229317 10.1433904828 0.0000000000 
Al 2.0289929570 8.1170778084 2.0290945590 
Al 16.2275525436 10.1425448577 2.0282277668 
Al 16.2277732105 8.1158575258 4.0587098284 
Al 2.0266989738 10.1448711207 4.0572360699 
Al 2.0286050701 8.1157289357 6.0875276278 
Al 16.2275684189 10.1452119108 6.0831952540 
Al 16.2277456933 8.1146335389 8.1139995846 
Al 2.0284934137 10.1420913528 8.1139995846 
Al 2.0286050701 8.1157289357 10.1404710122 
Al 16.2275684189 10.1452119108 10.1448033860 
Al 16.2277732105 8.1158575258 12.1692888115 
Al 2.0266989738 10.1448711207 12.1707630992 
Al 2.0289929570 8.1170778084 14.1989040809 
Al 16.2275525436 10.1425448577 14.1997708732 
Al 0.0010758173 12.1748314136 0.0000000000 
Al 1.9895173955 14.2515106458 0.0000000000 
Al 2.0259089122 12.1732375319 2.0252643744 
Al 16.2223216269 14.2299456161 1.9944710233 
Al 16.2274086074 12.1851900575 4.0417444071 
Al 2.0257803222 14.1890084671 4.0662125029 
Al 2.0268847150 12.1681124506 6.0862501940 
Al 16.2276229242 14.1973721129 6.0888606252 
Al 16.2272604378 12.1695158286 8.1139995846 
Al 2.0293273970 14.1973647044 8.1139995846 
Al 2.0268847150 12.1681124506 10.1417484460 
Al 16.2276229242 14.1973721129 10.1391380148 
Al 16.2274086074 12.1851900575 12.1862542329 
Al 2.0257803222 14.1890084671 12.1617866662 
Al 2.0259089122 12.1732375319 14.2027347948 
Al 16.2223216269 14.2299456161 14.2335281458 
Al 4.0735760038 16.2038448754 0.0000000000 
Al 6.0872730936 2.0276954145 0.0000000000 
Al 6.0940661414 16.2243938848 2.0317801334 
Al 4.0701236517 2.0269021779 2.0433934564 
Al 4.0514479296 16.2246769946 4.0566629710 
Al 6.0902957538 2.0272858313 4.0630522566 
Al 6.0855712596 16.2275758274 6.0856839744 
Al 4.0577504302 2.0272281510 6.0877657575 
Al 4.0584447107 16.2272789590 8.1139995846 
Al 6.0873286572 2.0287770527 8.1139995846 
Al 6.0855712596 16.2275758274 10.1423151948 
Al 4.0577504302 2.0272281510 10.1402328824 
Al 4.0514479296 16.2246769946 12.1713356690 
Al 6.0902957538 2.0272858313 12.1649463833 
Al 6.0940661414 16.2243938848 14.1962185066 
Al 4.0701236517 2.0269021779 14.1846051835 
Al 4.0592871608 4.0592871608 0.0000000000 
Al 6.0892405744 6.0892405744 0.0000000000 
Al 6.0925876203 4.0603132354 2.0308540733 
Al 4.0603132354 6.0925876203 2.0308540733 
Al 4.0635142283 4.0635142283 4.0677555837 
Al 6.0873598786 6.0873598786 4.0579001873 
Al 6.0874889979 4.0571106549 6.0877546448 
Al 4.0571106549 6.0874889979 6.0877546448 
Al 4.0570889586 4.0570889586 8.1139995846 
Al 6.0854934706 6.0854934706 8.1139995846 
Al 6.0874889979 4.0571106549 10.1402439952 
Al 4.0571106549 6.0874889979 10.1402439952 
Al 4.0635142283 4.0635142283 12.1602430563 
Al 6.0873598786 6.0873598786 12.1700984527 
Al 6.0925876203 4.0603132354 14.1971445667 
Al 4.0603132354 6.0925876203 14.1971445667 
Al 4.0570884295 8.1170153655 0.0000000000 
Al 6.0835434526 10.1450896709 0.0000000000 
Al 6.0872154132 8.1157056519 2.0286849759 
Al 4.0570789043 10.1443334766 2.0276652514 
Al 4.0567270014 8.1160041078 4.0581070956 
Al 6.0864301143 10.1420336725 4.0574477408 
Al 6.0851066421 8.1140360978 6.0851309842 
Al 4.0571434639 10.1421246910 6.0864877946 
Al 4.0583600423 8.1147256157 8.1139995846 
Al 6.0859448588 10.1428322009 8.1139995846 
Al 6.0851066421 8.1140360978 10.1428676558 
Al 4.0571434639 10.1421246910 10.1415108454 
Al 4.0567270014 8.1160041078 12.1698920735 
Al 6.0864301143 10.1420336725 12.1705508992 
Al 6.0872154132 8.1157056519 14.1993136641 
Al 4.0570789043 10.1443334766 14.2003339178 
Al 4.0411448493 12.1826875785 0.0000000000 
Al 6.0948969496 14.1919162959 0.0000000000 
Al 6.0859009371 12.1683558721 2.0273911376 
Al 4.0608694006 14.1883840380 2.0297274550 
Al 4.0591643917 12.1670562129 4.0603227606 
Al 6.0844017780 14.2001756938 4.0574001148 
Al 6.0854707160 12.1718055783 6.0853373633 
Al 4.0566216952 14.1998449580 6.0847113467 
Al 4.0572974545 12.1710171043 8.1139995846 
Al 6.0861999222 14.1987045811 8.1139995846 
Al 6.0854707160 12.1718055783 10.1426612766 
Al 4.0566216952 14.1998449580 10.1432872933 
Al 4.0591643917 12.1670562129 12.1676758794 
Al 6.0844017780 14.2001756938 12.1705985251 
Al 6.0859009371 12.1683558721 14.2006075024 
Al 4.0608694006 14.1883840380 14.1982711850 
Al 8.1168523789 16.2279309053 0.0000000000 
Al 10.1433904828 2.0277229317 0.0000000000 
Al 10.1425448577 16.2275525436 2.0282277668 
Al 8.1170778084 2.0289929570 2.0290945590 
Al 8.1158575258 16.2277732105 4.0587098284 
Al 10.1448711207 2.0266989738 4.0572360699 
Al 10.1452119108 16.2275684189 6.0831952540 
Al 8.1157289357 2.0286050701 6.0875276278 
Al 8.1146335389 16.2277456933 8.1139995846 
Al 10.1420913528 2.0284934137 8.1139995846 
Al 10.1452119108 16.2275684189 10.1448033860 
Al 8.1157289357 2.0286050701 10.1404710122 
Al 8.1158575258 16.2277732105 12.1692888115 
Al 10.1448711207 2.0266989738 12.1707630992 
Al 10.1425448577 16.2275525436 14.1997708732 
Al 8.1170778084 2.0289929570 14.1989040809 
Al 8.1170153655 4.0570884295 0.0000000000 
Al 10.1450896709 6.0835434526 0.0000000000 
Al 10.1443334766 4.0570789043 2.0276652514 
Al 8.1157056519 6.0872154132 2.0286849759 
Al 8.1160041078 4.0567270014 4.0581070956 
Al 10.1420336725 6.0864301143 4.0574477408 
Al 10.1421246910 4.0571434639 6.0864877946 
Al 8.1140360978 6.0851066421 6.0851309842 
Al 8.1147256157 4.0583600423 8.1139995846 
Al 10.1428322009 6.0859448588 8.1139995846 
Al 10.1421246910 4.0571434639 10.1415108454 
Al 8.1140360978 6.0851066421 10.1428676558 
Al 8.1160041078 4.0567270014 12.1698920735 
Al 10.1420336725 6.0864301143 12.1705508992 
Al 10.1443334766 4.0570789043 14.2003339178 
Al 8.1157056519 6.0872154132 14.1993136641 
Al 8.1157157063 8.1157157063 0.0000000000 
Al 10.1454574490 10.1454574490 0.0000000000 
Al 10.1422591020 8.1144001717 2.0288204452 
Al 8.1144001717 10.1422591020 2.0288204452 
Al 8.1139053910 8.1139053910 4.0577758307 
Al 10.1421320994 10.1421320994 4.0569402599 
Al 10.1427189570 8.1143774171 6.0853468885 
Al 8.1143774171 10.1427189570 6.0853468885 
Al 8.1139561920 8.1139561920 8.1139995846 
Al 10.1430502219 10.1430502219 8.1139995846 
Al 10.1427189570 8.1143774171 10.1426517515 
Al 8.1143774171 10.1427189570 10.1426517515 
Al 8.1139053910 8.1139053910 12.1702233385 
Al 10.1421320994 10.1421320994 12.1710583801 
Al 10.1422591020 8.1144001717 14.1991781947 
Al 8.1144001717 10.1422591020 14.1991781947 
Al 8.1161570401 12.1688024977 0.0000000000 
Al 10.1428665974 14.1997280099 0.0000000000 
Al 10.1448139695 12.1709647158 2.0270312971 
Al 8.1161469857 14.1973916925 2.0297306300 
Al 8.1141038325 12.1714975972 4.0568190783 
Al 10.1448245531 14.2008832037 4.0570164614 
Al 10.1421993049 12.1713107976 6.0859776677 
Al 8.1139281457 14.1994073285 6.0858818867 
Al 8.1140715527 12.1693967637 8.1139995846 
Al 10.1418003053 14.1988363463 8.1139995846 
Al 10.1421993049 12.1713107976 10.1420209722 
Al 8.1139281457 14.1994073285 10.1421172825 
Al 8.1141038325 12.1714975972 12.1711800909 
Al 10.1448245531 14.2008832037 12.1709821786 
Al 10.1448139695 12.1709647158 14.2009673429 
Al 8.1161469857 14.1973916925 14.1982680099 
Al 12.1748314136 0.0010758173 0.0000000000 
Al 14.2515106458 1.9895173955 0.0000000000 
Al 14.2299456161 16.2223216269 1.9944710233 
Al 12.1732375319 2.0259089122 2.0252643744 
Al 12.1851900575 16.2274086074 4.0417444071 
Al 14.1890084671 2.0257803222 4.0662125029 
Al 14.1973721129 16.2276229242 6.0888606252 
Al 12.1681124506 2.0268847150 6.0862501940 
Al 12.1695158286 16.2272604378 8.1139995846 
Al 14.1973647044 2.0293273970 8.1139995846 
Al 14.1973721129 16.2276229242 10.1391380148 
Al 12.1681124506 2.0268847150 10.1417484460 
Al 12.1851900575 16.2274086074 12.1862542329 
Al 14.1890084671 2.0257803222 12.1617866662 
Al 14.2299456161 16.2223216269 14.2335281458 
Al 12.1732375319 2.0259089122 14.2027347948 
Al 12.1826875785 4.0411448493 0.0000000000 
Al 14.1919162959 6.0948969496 0.0000000000 
Al 14.1883840380 4.0608694006 2.0297274550 
Al 12.1683558721 6.0859009371 2.0273911376 
Al 12.1670562129 4.0591643917 4.0603227606 
Al 14.2001756938 6.0844017780 4.0574001148 
Al 14.1998449580 4.0566216952 6.0847113467 
Al 12.1718055783 6.0854707160 6.0853373633 
Al 12.1710171043 4.0572974545 8.1139995846 
Al 14.1987045811 6.0861999222 8.1139995846 
Al 14.1998449580 4.0566216952 10.1432872933 
Al 12.1718055783 6.0854707160 10.1426612766 
Al 12.1670562129 4.0591643917 12.1676758794 
Al 14.2001756938 6.0844017780 12.1705985251 
Al 14.1883840380 4.0608694006 14.1982711850 
Al 12.1683558721 6.0859009371 14.2006075024 
Al 12.1688024977 8.1161570401 0.0000000000 
Al 14.1997280099 10.1428665974 0.0000000000 
Al 14.1973916925 8.1161469857 2.0297306300 
Al 12.1709647158 10.1448139695 2.0270312971 
Al 12.1714975972 8.1141038325 4.0568190783 
Al 14.2008832037 10.1448245531 4.0570164614 
Al 14.1994073285 8.1139281457 6.0858818867 
Al 12.1713107976 10.1421993049 6.0859776677 
Al 12.1693967637 8.1140715527 8.1139995846 
Al 14.1988363463 10.1418003053 8.1139995846 
Al 14.1994073285 8.1139281457 10.1421172825 
Al 12.1713107976 10.1421993049 10.1420209722 
Al 12.1714975972 8.1141038325 12.1711800909 
Al 14.2008832037 10.1448245531 12.1709821786 
Al 14.1973916925 8.1161469857 14.1982680099 
Al 12.1709647158 10.1448139695 14.2009673429 
Al 12.1861907316 12.1861907316 0.0000000000 
Al 14.2347124444 14.2347124444 0.0000000000 
Al 14.2003328594 12.1728305946 2.0260655487 
Al 12.1728305946 14.2003328594 2.0260655487 
Al 12.1683997938 12.1683997938 4.0591659792 
Al 14.1989871618 14.1989871618 4.0552119671 
Al 14.2013853929 12.1714012870 6.0831587407 
Al 12.1714012870 14.2013853929 6.0831587407 
Al 12.1714870137 12.1714870137 8.1139995846 
Al 14.1983293945 14.1983293945 8.1139995846 
Al 14.2013853929 12.1714012870 10.1448398992 
Al 12.1714012870 14.2013853929 10.1448398992 
Al 12.1683997938 12.1683997938 12.1688326608 
Al 14.1989871618 14.1989871618 12.1727866729 
Al 14.2003328594 12.1728305946 14.2019336205 
Al 12.1728305946 14.2003328594 14.2019336205 

