&CONTROL
  calculation = 'scf'
  outdir = './out/'
  prefix = 'aiida'
  pseudo_dir = '/users/aglensk/Dropbox/Albert/scripts/dotfiles/scripts/potentials/quantum_espresso/pseudo_SSSPefV1.1_alalloy'
  tprnfor = .true.             	! calculate the pressure of the cell
  tstress = .true.
  verbosity = 'high'
  wf_collect = .true.
  etot_conv_thr = 2.5d-4    ! EDIFFG positive atomic units
  forc_conv_thr = 2.0d-5
/
&SYSTEM
  degauss =   4.4100000000d-02  ! SIGMA in Rydberg  so, 0.60001101eV
  ecutrho = 400                 ! AUGMENTATION charges
  ecutwfc =  40                 ! ENCUT in Rydberg, so 544eV
  ibrav = 0                     ! no symmetry
   nat              = 484
   ntyp             = 3
  occupations = 'smearing'      ! using smearing 
  smearing = 'mp'               ! methfessel paxton
  nosym= .true. 		! no symmetry
/
&ELECTRONS
  conv_thr =   1.0000000000d-12   	! EDIFF
  mixing_beta =   4.0000000000d-01      ! MIXING
  mixing_mode = 'local-TF'                 ! MIXING
/
&IONS
  !press_conv_thr = 0.05                 ! just for volume relaxations
/
ATOMIC_SPECIES
Al 26.9815385 Al.pbe-n-kjpaw_psl.1.0.0.UPF
Si 28.085 Si.pbe-n-rrkjus_psl.1.0.0.UPF
Mg 24.305 Mg.pbe-n-kjpaw_psl.0.3.0.UPF

K_POINTS automatic
2 20 2 0 0 0
CELL_PARAMETERS angstrom
44.62699692139272 0.00000000000000 0.00000000000000
0.00000000000000 4.05699952769853 0.00000000000000
0.00000000000000 0.00000000000000 44.62699692139272

ATOMIC_POSITIONS angstrom
Al 1.8466448404 2.0248098112 44.4127695821 
Al 44.4667276655 4.0532148523 44.4352347422 
Al 1.8374339818 4.0534863202 1.7693542754 
Al 44.4315416144 2.0247378431 1.7898620090 
Al 1.7896270543 2.0251008586 3.7135465844 
Al 44.4305367069 4.0534577446 3.8174695800 
Si 1.8314331123 4.0538313437 5.5876594262 
Al 44.2839646739 2.0250452950 5.7728486953 
Si 1.6748834430 2.0257686803 7.2263905406 
Mg 44.5826444627 4.0540493647 8.1016665805 
Mg 1.6581937230 2.0258845701 9.9928041116 
Si 43.7272522564 2.0256469695 9.9464143206 
Si 1.8298048340 2.0260417357 12.7560341525 
Mg 44.6103405395 4.0542705608 11.7888744276 
Si 1.5994666945 4.0544113220 14.2660317976 
Al 44.2777542502 2.0257660344 14.1280451357 
Al 1.5188005081 2.0259808803 16.2391854462 
Al 44.2673432178 4.0542827319 16.1542990715 
Al 1.6954202814 4.0543869798 18.2893994677 
Al 44.3654807190 2.0257956683 18.2619690378 
Al 1.7869208420 2.0259067955 20.2380056438 
Al 44.4225233764 4.0542366935 20.3126841901 
Al 1.7560661064 4.0542652691 22.3596167838 
Al 44.4579036355 2.0256289775 22.3524771248 
Al 1.7948976593 2.0255575386 24.4155125810 
Al 44.4757691873 4.0539699882 24.4112558795 
Al 1.8291555336 4.0538652111 26.4547022537 
Al 44.4922472365 2.0252564367 26.4515420074 
Al 1.8573553871 2.0251601265 28.4718871504 
Al 44.5044955722 4.0535672843 28.4733397418 
Al 1.8773529939 4.0535138374 30.4824292856 
Al 44.5139360936 2.0249331095 30.4848809636 
Al 1.8844603730 2.0248288615 32.4879468832 
Al 44.5140165286 4.0532534822 32.4871451797 
Al 1.8899548200 4.0531995061 34.4850971307 
Al 44.5118019220 2.0246288326 34.4836037927 
Al 1.8942686726 2.0245886151 36.4764036744 
Al 44.5108785077 4.0530751495 36.4758379839 
Al 1.8942099339 4.0531259505 38.4641906603 
Al 44.5074827776 2.0244764295 38.4643869851 
Al 1.8877216922 2.0246743418 40.4471330289 
Al 44.5003399436 4.0530534532 40.4530873309 
Al 1.8745086664 4.0532899955 42.4338103303 
Al 44.4844482228 2.0246097822 42.4391703663 
Al 5.8922882251 2.0251087963 44.3921861761 
Al 3.8783466555 4.0535270668 44.4171337065 
Al 5.9016975251 4.0538689153 1.7727431262 
Al 3.8391769584 2.0250638162 1.7472431348 
Al 5.7620868184 2.0253940228 3.7117087519 
Al 3.8640906215 4.0539038410 3.8112813817 
Mg 6.0334060286 4.0545769544 6.0495893260 
Al 3.7589886190 2.0254919206 5.7074889597 
Si 5.2446298247 2.0261973138 7.7654834737 
Mg 3.3075602409 4.0544933444 8.1639470339 
Mg 6.2110068965 4.0549627246 9.5813905266 
Si 4.2218509290 2.0262179517 9.9111377802 
Si 5.6947421390 2.0265238161 11.7656636568 
Mg 3.4258170597 4.0546632103 11.6683437343 
Si 5.7513312916 4.0550013546 13.2303785497 
Mg 4.0684916692 2.0262698111 14.3550240583 
Mg 5.7172168243 4.0550537431 16.1165232271 
Si 3.1357914351 4.0545377953 16.1458491698 
Si 5.8652282193 4.0550505680 18.9098899102 
Mg 4.0319424576 2.0262438814 17.9714883208 
Si 5.6362738782 2.0264619024 20.4358951660 
Al 3.6831559372 4.0545071030 20.3082216387 
Al 5.5610095327 4.0547415285 22.4051810583 
Al 3.6663201642 2.0260015182 22.3319381698 
Al 5.7349331482 2.0259073247 24.4430705426 
Al 3.7591367886 4.0542022970 24.4233020695 
Al 5.8288663364 4.0542308725 26.3789367774 
Al 3.8092747418 2.0254929789 26.4503164330 
Al 5.8044977259 2.0254501156 28.4707695281 
Al 3.8405300645 4.0538472191 28.4604913192 
Al 5.8458365204 4.0537255083 30.4947596438 
Al 3.8621617705 2.0250828666 30.4861282343 
Al 5.8833207881 2.0249897314 32.5017467665 
Al 3.8810010084 4.0534365775 32.4930026423 
Al 5.9136008373 4.0534233481 34.4869492510 
Al 3.8989083652 2.0247727688 34.4868905123 
Al 5.9334047652 2.0248251573 36.4694920908 
Al 3.9106698579 4.0532513655 36.4756395425 
Al 5.9364475342 4.0534233481 38.4558704070 
Al 3.9131157150 2.0247579518 38.4592518494 
Al 5.9311076069 2.0249616850 40.4361954652 
Al 3.9068026308 4.0533302129 40.4453602853 
Al 5.9198779374 4.0535561716 42.4221864237 
Al 3.8915580938 2.0248701374 42.4248884025 
Al 9.9590992275 2.0254352986 44.3644594070 
Al 7.9401733377 4.0538620360 44.3745047780 
Al 9.9910387764 4.0542827319 1.7878082722 
Al 7.9029764133 2.0255390174 1.6850536998 
Al 9.8971775562 2.0258977995 3.6800406709 
Si 7.9421932072 4.0543028406 3.5511585029 
Mg 9.4533074162 4.0550383970 6.1083444009 
Si 7.7865860025 2.0262629318 5.1785805711 
Si 10.3883482011 2.0268677813 7.8719433449 
Mg 7.8228600419 2.0265619169 7.9306211599 
Mg 9.5900552743 4.0554289297 9.6178169691 
Si 7.9312450598 2.0267672377 10.7745703050 
Mg 10.2778840460 2.0273514493 12.3355081360 
Si 7.9807829261 4.0553029856 12.2121690993 
Si 9.4451707874 4.0557924745 14.0690260014 
Mg 7.4065774975 2.0268185679 14.4089657373 
Mg 10.3635726533 2.0273678538 15.8063830476 
Si 8.3047811984 4.0553151566 16.1380983112 
Si 9.8133844616 4.0557623114 17.9661658564 
Mg 7.4890471198 2.0267391913 17.8706356113 
Si 9.8458664172 2.0272752478 19.4136078760 
Mg 8.1235253035 4.0552939895 20.5213451144 
Mg 9.7918866374 2.0269238741 22.2911968163 
Si 7.1914516152 2.0265142910 22.3057550106 
Si 9.9480891665 2.0265000032 25.0775778310 
Mg 8.0920509014 4.0548478932 24.1320037737 
Si 9.7332807905 4.0547309450 26.5853211813 
Al 7.7428669689 2.0258215980 26.4394661834 
Al 9.6833650918 2.0258872160 28.5157607038 
Al 7.7515137245 4.0541398541 28.4452827661 
Al 9.8659899681 4.0539842760 30.5426739943 
Al 7.8530099135 2.0253379300 30.5096623324 
Al 9.9798773707 2.0253236422 32.4545483927 
Al 7.8987975008 4.0536387232 32.5019351536 
Al 9.9598384881 4.0537281542 34.4930681271 
Al 7.9444490896 2.0250119569 34.4776854747 
Al 9.9906694107 2.0251781185 36.4623968828 
Al 7.9530233479 4.0535360629 36.4686898582 
Al 9.9951367247 4.0537043412 38.4507109292 
Al 7.9645736989 2.0250616995 38.4485476528 
Al 9.9966459381 2.0252357988 40.4252795977 
Al 7.9627332206 4.0536212604 40.4307179519 
Al 9.9927115056 4.0538604485 42.4122315420 
Al 7.9462392961 2.0251643599 42.4006256274 
Al 14.0718449284 2.0256702533 44.3320727033 
Al 12.0447326672 4.0541657837 44.3981156067 
Si 14.1136869705 4.0544049718 1.5460155628 
Al 11.9134845479 2.0257628593 1.7017264862 
Si 13.9778418888 2.0263364874 3.1503983136 
Mg 12.2009097957 4.0548574184 4.0156221033 
Mg 14.0126019522 2.0268476726 5.8957104142 
Si 11.4112742080 2.0265523917 5.7275251964 
Si 14.1005580839 2.0272921815 8.7457704977 
Mg 12.3803453210 4.0554956061 7.5420733222 
Si 14.1773803271 4.0558670885 10.1779452255 
Si 11.8544119667 2.0273239321 9.7358631753 
Mg 13.6364839580 2.0276361466 12.3539197986 
Si 11.9381807192 4.0559078351 11.1984380756 
Si 14.5711918905 4.0562946637 14.1020112045 
Mg 12.0071568519 4.0560803469 14.0872572147 
Mg 13.7463840103 2.0278060125 15.8384273736 
Si 12.0613943409 4.0561221519 16.9633464668 
Mg 14.4054324210 4.0563496981 18.5406120606 
Si 12.0979890617 2.0276250339 18.4134692981 
Si 13.5635929723 2.0277112898 20.2707574798 
Mg 11.5084449025 4.0558210501 20.6026135045 
Mg 14.4800850377 4.0559734531 22.0159230648 
Si 12.3991480457 2.0271254906 22.3305231499 
Si 13.9271731708 2.0270312971 24.1462809749 
Mg 11.5881400488 4.0553442614 24.0596975288 
Si 14.0037334713 4.0553786579 25.5762739051 
Mg 12.2644634496 2.0264084555 26.6608019602 
Mg 13.9956476435 4.0549076902 28.4040757368 
Si 11.3443126530 4.0544922861 28.4234679648 
Si 14.0522145706 4.0543340621 31.1194549284 
Mg 12.2550197531 2.0258364149 30.2453737706 
Si 14.0695922211 2.0257041206 32.7157142798 
Al 11.9128638231 4.0539324166 32.5167748701 
Al 14.0698224131 4.0540800570 34.5444178961 
Al 12.0304993878 2.0253194088 34.4645899263 
Al 14.0792925685 2.0254416487 36.4973580335 
Al 12.0256309575 4.0538265811 36.4707213695 
Al 14.0839720826 4.0539059577 38.4617151693 
Al 12.0369241283 2.0252908332 38.4470315601 
Al 14.0807197594 2.0253442801 40.4262718050 
Al 12.0388582710 4.0538503941 40.4320271363 
Al 14.0894644128 4.0540149682 42.3937923621 
Al 12.0270047015 2.0254024896 42.3994614376 
Al 18.1418733282 2.0256887745 44.3749932085 
Al 16.1767203099 4.0542366935 44.4458664415 
Mg 18.4708797337 4.0546028841 2.0351404087 
Al 16.1301765284 2.0258586404 1.7048602736 
Si 17.6892717643 2.0263063243 3.7335627124 
Mg 15.6793223076 4.0550235800 4.0852861663 
Mg 18.6338753106 4.0552072045 5.5253440471 
Si 16.6012479645 2.0268693689 5.8506255742 
Si 18.0798781013 2.0271519495 7.7051625635 
Mg 15.7887767926 4.0555919163 7.5935178139 
Si 18.1718887888 4.0557506695 9.1595071706 
Mg 16.4934926675 2.0275557117 10.2744867283 
Mg 18.2405294231 4.0561729529 12.0315466295 
Si 15.6729695351 4.0562020576 12.0150034915 
Si 18.2870615628 4.0564915176 14.9258379902 
Mg 16.6022010126 2.0278716305 13.7581640242 
Si 18.3328369790 2.0280303837 16.3787728692 
Si 16.0483106972 4.0565290892 15.9557501946 
Mg 17.7798467940 4.0564825216 18.5765225553 
Si 16.0933299192 2.0280325004 17.4069192092 
Si 18.7064101600 2.0278499342 20.3183696701 
Mg 16.1352402251 2.0278001916 20.3013306931 
Mg 17.8793215260 4.0561957075 22.0594515946 
Si 16.1907398018 2.0273826708 23.1723424899 
Mg 18.5736306019 2.0271376617 24.7355266781 
Si 16.2729305477 4.0557459069 24.6254541141 
Si 17.7537906373 4.0553913582 26.4753301105 
Mg 15.7160874234 2.0266995030 26.8027870851 
Mg 18.6720109954 2.0265613877 28.2355428496 
Si 16.6600273815 4.0547939171 28.5869181049 
Al 18.2109590006 4.0544684731 30.6153575426 
Mg 15.8665219209 2.0260369731 30.2822203798 
Al 18.1541825193 2.0257618010 32.5005661721 
Al 16.1927707839 4.0542345768 32.5658555272 
Al 18.1994546881 4.0541567877 34.5385826590 
Al 16.1160813642 2.0256146897 34.5020509102 
Al 18.1875624886 2.0255183794 36.4979528287 
Al 16.1365367093 4.0540366645 36.4954630499 
Al 18.1900353337 4.0539636380 38.4782731243 
Al 16.1349793407 2.0254236567 38.4616654267 
Al 18.1900041123 2.0254485281 40.4450110283 
Al 16.1385396450 4.0539652256 40.4433636997 
Al 18.2119639081 4.0540853488 42.4407515478 
Al 16.1322413778 2.0254871580 42.4050871205 
Al 22.4213246675 2.0254390029 44.4221540107 
Si 20.2595987199 4.0541028116 44.2244142457 
Mg 22.0865576389 4.0543266536 2.0667867934 
Si 20.2856771020 2.0258840409 1.1974317173 
Si 22.9973546991 2.0260660779 3.8916067781 
Mg 20.3481549386 2.0263581837 3.9165638337 
Mg 22.0864676788 4.0548796438 5.6617241270 
Si 20.3461340108 2.0268344432 6.7498939797 
Mg 22.7729888536 2.0266619314 8.2580495589 
Si 20.4309658803 4.0553781287 8.1803414731 
Si 21.9656692218 4.0553950624 9.9896851411 
Mg 19.8907939548 2.0273196987 10.3107036166 
Mg 22.8620895956 2.0271868752 11.7181260804 
Si 20.8111331385 4.0560597090 12.0552098468 
Si 22.2798184480 4.0561120975 13.9107295182 
Mg 19.9738604891 2.0277710868 13.7875905105 
Si 22.3172064054 2.0276536095 15.3603967279 
Mg 20.6355103350 4.0563973240 16.4905726676 
Mg 22.3726911651 2.0277329861 18.2410077993 
Si 19.8099462606 2.0279293108 18.2314392170 
Si 22.4431045431 2.0275456573 21.1351906787 
Mg 20.7460723879 4.0562856676 19.9801084844 
Si 22.5170073156 4.0559131269 22.5980211715 
Si 20.2017120249 2.0275012065 22.1572832314 
Mg 21.9877692497 2.0270281220 24.7920168745 
Si 20.2686196038 4.0558760845 23.5864813375 
Si 22.9547998553 4.0551362947 26.5981156279 
Mg 20.3461435360 4.0554426883 26.4314819577 
Mg 22.1550548662 2.0264682525 28.3105706528 
Si 20.3732495803 4.0549193321 29.1772687302 
Al 22.4370549892 4.0544996946 30.6177107936 
Si 20.2209566125 2.0261666215 30.7766666316 
Al 22.2933891975 2.0258168354 32.5472877572 
Al 20.2649788646 4.0544166137 32.6129025563 
Al 22.3085353076 4.0541779548 34.5439225862 
Al 20.2422575827 2.0256787201 34.5505388888 
Al 22.2929658557 2.0254987999 36.5088136618 
Al 20.2481970677 4.0540673568 36.5148420486 
Al 22.2936458485 4.0539017243 38.4920899412 
Al 20.2432921242 2.0254162482 38.4776005400 
Al 22.3039875587 2.0253315799 40.4691261630 
Al 20.2483896882 4.0539355916 40.4426964072 
Al 22.2992731189 4.0539218330 42.4759090233 
Al 20.2601189011 2.0254797495 42.3956592993 
Al 26.4358360278 2.0251315509 44.4327650721 
Al 24.3563177599 4.0538932575 44.4816266499 
Al 26.4850278121 4.0537768385 1.7987717657 
Al 24.4708274748 2.0254765744 1.7703602412 
Al 26.5915622973 2.0255718263 3.8631391608 
Al 24.6589912490 4.0543785130 3.7967559965 
Al 26.6087118723 4.0542181723 5.8684588462 
Si 24.6161437703 2.0261973138 5.7261408688 
Mg 26.2663453298 2.0262211268 8.1792799436 
Si 24.4105944080 4.0548500099 7.2352113955 
Si 27.1710684940 4.0547531704 10.0035210084 
Mg 24.5707811122 4.0553035147 10.0260210943 
Mg 26.2455370235 2.0267016197 11.7918446993 
Si 24.5264090739 4.0556776430 12.9031507088 
Mg 26.8876374758 4.0553902998 14.4412079755 
Si 24.5629397643 2.0272815979 14.3520955916 
Si 26.0733570470 2.0270635769 16.1779083128 
Mg 24.0161716449 4.0560179040 16.5136807780 
Mg 26.9766318532 4.0555479946 17.9006320215 
Si 24.9360737282 2.0275398364 18.2495947579 
Si 26.4039568051 2.0269577415 20.1055843387 
Mg 24.1038039202 4.0560253125 19.9882091291 
Si 26.4459078576 4.0553590783 21.5442605377 
Mg 24.7902081468 2.0269630332 22.7121371786 
Mg 26.5496022487 4.0551458199 24.3936935462 
Si 23.9836341258 4.0553977083 24.4579028506 
Si 26.5817460600 4.0548627101 27.1462103945 
Mg 24.9146949689 2.0266016052 26.2156644408 
Si 26.4135132163 2.0261523337 28.7727873667 
Al 24.4642365727 4.0546991944 28.6426875619 
Al 26.4504100973 4.0543626377 30.6354451095 
Al 24.3598934103 2.0259575965 30.5349236649 
Al 26.4081918103 2.0255966977 32.5711398908 
Al 24.3879054059 4.0542335184 32.5817578316 
Al 26.3982702668 4.0539265956 34.5421212670 
Al 24.3462845600 2.0255490717 34.5305846746 
Al 26.3752838671 2.0252945375 36.5090951841 
Al 24.3394819869 4.0539144246 36.5151457963 
Al 26.3709890648 4.0536826449 38.4897022937 
Al 24.3385807981 2.0253114712 38.4883073825 
Al 26.3815784300 2.0250823374 40.4681085552 
Al 24.3416299172 4.0537694300 40.4761742743 
Al 26.3898404738 4.0536291980 42.4570618478 
Al 24.3731413617 2.0252432073 42.4435620079 
Al 30.4585702727 2.0248383867 44.4373874351 
Al 28.4538496160 4.0535138374 44.4303192151 
Al 30.4790261470 4.0535492923 1.8160213552 
Al 28.4941734486 2.0251013878 1.8104776947 
Al 30.5063888422 2.0251786477 3.8399569656 
Al 28.5418491402 4.0538715612 3.8342053385 
Al 30.5422231353 4.0539022535 5.8497720113 
Al 28.5229797393 2.0256289775 5.9255247874 
Al 30.5984212259 2.0256078104 7.8761989880 
Al 28.6225555442 4.0542636815 7.8625377492 
Al 30.6955247149 4.0543758671 9.9672157476 
Al 28.8017577023 2.0261793218 9.8997763455 
Al 30.6850157847 2.0260052225 11.9905750840 
Si 28.7337515514 4.0548706478 11.8699131548 
Mg 30.3418512429 4.0548754104 14.3285133384 
Si 28.5078775508 2.0266238306 13.3940361272 
Si 31.2394384524 2.0263370166 16.1512176726 
Mg 28.6584935561 2.0267741170 16.1891099359 
Mg 30.3078352026 4.0550230508 17.9435324179 
Si 28.6293337750 2.0267746461 19.0793340406 
Mg 30.9483063182 2.0261195248 20.6427907550 
Si 28.6786959544 4.0551505825 20.5470483099 
Si 30.1495588281 4.0546351639 22.4029119464 
Mg 28.1604123859 2.0264714276 22.7402110880 
Mg 31.0648443694 2.0259385462 24.1461216925 
Si 29.1297105159 4.0546769689 24.5494595041 
Al 30.6107918016 4.0543113075 26.6052489367 
Mg 28.3372586471 2.0261830260 26.2693722235 
Al 30.4989126265 2.0256136313 28.5044151444 
Al 28.6040523338 4.0542229349 28.6061484047 
Al 30.5200929444 4.0539160121 30.5681771608 
Al 28.4523478111 2.0256004019 30.5450918050 
Al 30.4736306561 2.0252215110 32.5225545436 
Al 28.4591837223 4.0539535837 32.5503395222 
Al 30.4566959270 4.0536154394 34.5130964261 
Al 28.4259942568 2.0252500866 34.5185929898 
Al 30.4369967762 2.0250013733 36.4915074503 
Al 28.4111942286 4.0536270813 36.5026783812 
Al 30.4287140945 4.0534048269 38.4754975898 
Al 28.4016282922 2.0250299489 38.4807803659 
Al 30.4295665990 2.0248452660 40.4571466493 
Al 28.4040021811 4.0534884369 40.4646778994 
Al 30.4399374140 4.0533217461 42.4441255817 
Al 28.4233441373 2.0249204092 42.4452013989 
Al 34.4560691149 2.0246875712 44.4402116538 
Al 32.4559306036 4.0532624782 44.4415504722 
Al 34.4595368131 4.0532984623 1.8151042911 
Al 32.4660114295 2.0248918336 1.8177184265 
Al 34.4731197338 2.0249696227 3.8250156471 
Al 32.4899947990 4.0535868639 3.8268481877 
Al 34.4901227267 4.0536503651 5.8456465458 
Al 32.5232916875 2.0252305070 5.8421878435 
Al 34.5110331642 2.0253633305 7.8843811261 
Al 32.5631900616 4.0539636380 7.8816061208 
Al 34.5335787592 4.0540864072 9.9418083621 
Al 32.6071376998 2.0257326962 9.9365552200 
Al 34.5711191197 2.0257136458 11.9795094593 
Al 32.5821044426 4.0543811589 12.0565354357 
Al 34.6319046476 4.0543128950 14.0277660543 
Al 32.6751279753 2.0260031058 14.0048881360 
Al 34.7296230404 2.0259343127 16.1360953755 
Al 32.8549841965 4.0545674292 16.0534929296 
Al 34.7159427512 4.0543044282 18.1645877308 
Si 32.7740264334 2.0260856574 18.0344535296 
Mg 34.3878576432 2.0257787346 20.5047755176 
Si 32.5404677214 4.0545102781 19.5441156764 
Si 35.2724196849 4.0539482919 22.3473822067 
Mg 32.7145040515 4.0543541708 22.3122654778 
Mg 34.4145874425 2.0255723555 24.1978847489 
Si 32.6948821606 4.0541848341 25.0789711546 
Al 34.7070160608 4.0537339751 26.5318457074 
Si 32.5309970368 2.0256459112 26.7208413482 
Al 34.5543849488 2.0251495429 28.4906628870 
Al 32.5693809058 4.0538974909 28.5987303986 
Al 34.5511903060 4.0535551132 30.5191779970 
Al 32.5197562545 2.0252061649 30.5419209752 
Al 34.5123063646 2.0248733124 32.4999205760 
Al 32.5055700719 4.0535598758 32.5258470842 
Al 34.4895707949 4.0532571865 34.4949953905 
Al 32.4713296604 2.0249320511 34.5012391524 
Al 34.4705833874 2.0246473538 36.4793490747 
Al 32.4553903137 4.0533482049 36.4875507923 
Al 34.4621498902 4.0531381216 38.4667068980 
Al 32.4480717929 2.0247526600 38.4693183875 
Al 34.4577354939 2.0245743273 40.4543049677 
Al 32.4459968890 4.0532159106 40.4548389075 
Al 34.4562135802 4.0531063710 42.4452940050 
Al 32.4501302922 2.0246992131 42.4448812467 
Al 38.4543236221 2.0245267014 44.4397428028 
Al 36.4564584561 4.0531005500 44.4410006571 
Al 38.4472024843 4.0532016229 1.8157355995 
Al 36.4535088223 2.0247108550 1.8130394416 
Al 38.4340608975 2.0248018735 3.8156846653 
Al 36.4544973254 4.0533773097 3.8243319501 
Al 38.4238615359 4.0535148958 5.8335696635 
Al 36.4533543026 2.0250606412 5.8433287496 
Al 38.4055996304 2.0252061649 7.8664991698 
Al 36.4594102066 4.0537699592 7.8826512458 
Al 38.3998839873 4.0538604485 9.9305442960 
Al 36.4751347074 2.0254453530 9.9300786201 
Al 38.4455006504 2.0255644179 12.0066747714 
Al 36.5188706747 4.0541387957 11.9805937434 
Al 38.4972192559 4.0542118222 14.0685518587 
Al 36.5713565871 2.0257046498 14.0497872348 
Al 38.5313093810 2.0256771326 16.1459343673 
Al 36.6208214269 4.0542652691 16.1176847711 
Al 38.5715337283 4.0542028261 18.1836709194 
Al 36.6000496338 2.0257665636 18.2571799841 
Al 38.6106944294 2.0256310942 20.2725228149 
Al 36.6855360955 4.0541335039 20.2161474500 
Al 38.7074317278 4.0538705029 22.3553685491 
Al 36.8482565002 2.0255353131 22.3526956750 
Al 38.6192840339 2.0253167629 24.4310201191 
Al 36.6903129782 4.0537884804 24.4832393263 
Al 38.5981651006 4.0536281397 26.4840620637 
Al 36.5766250754 2.0251712392 26.4311993770 
Al 38.5547709818 2.0249807354 28.4819378132 
Al 36.5878102941 4.0535662260 28.5169672278 
Al 38.5464962378 4.0533815431 30.4963270667 
Al 36.5421904560 2.0248844251 30.4958259359 
Al 38.5192758912 2.0247214386 32.4902265786 
Al 36.5239137335 4.0532894663 32.4990961179 
Al 38.5042297956 4.0530698577 34.4860189574 
Al 36.4974823902 2.0246394161 34.4884007841 
Al 38.4911633519 2.0244309203 36.4759935620 
Al 36.4839164032 4.0530508074 36.4790035220 
Al 38.4808152916 4.0529465594 38.4655204827 
Al 36.4733699014 2.0244796046 38.4656321391 
Al 38.4728839835 2.0244023447 40.4556035686 
Al 36.4657031820 4.0530322862 40.4557083456 
Al 38.4652093265 4.0529814851 42.4465672053 
Al 36.4596065313 2.0245018300 42.4465973684 
Al 42.4540894594 2.0245759148 44.4329005415 
Al 40.4558411691 4.0530550408 44.4384235641 
Al 42.4385686918 4.0532122064 1.8089504893 
Al 40.4329203874 2.0246251283 1.8058876116 
Al 42.3958244026 2.0248076945 3.7865539891 
Al 40.4271063174 4.0533683137 3.8185882607 
Al 42.4110176095 4.0535916265 5.8691404264 
Al 40.3875429124 2.0250098401 5.8151918682 
Al 42.3005137660 2.0252680786 7.8140047905 
Al 40.3700901189 4.0536847617 7.8654810328 
Al 42.1476487577 4.0539414126 9.9403684710 
Al 40.2866039471 2.0254792203 9.9368684929 
Al 42.3112767013 2.0256681366 12.0741988419 
Al 40.3844641594 4.0540393104 12.0156877177 
Al 42.3984030832 4.0541403832 14.0319666630 
Al 40.4246472309 2.0256670782 14.1022302839 
Al 42.3756050706 2.0257596843 16.1718931554 
Al 40.4648355942 4.0542128805 16.1385745707 
Al 42.4240396023 4.0541885384 18.2390371434 
Al 40.4974329103 2.0256406194 18.2185786233 
Al 42.4757259280 2.0256210398 20.3087227696 
Al 40.5482979530 4.0541017533 20.2816754640 
Al 42.5165334286 4.0540197308 22.3620880413 
Al 40.5923773563 2.0254829246 22.3621309047 
Al 42.5294987994 2.0253654472 24.4120903920 
Al 40.5842693031 4.0537943013 24.4290097749 
Al 42.5312948269 4.0537006370 26.4537148090 
Al 40.5611839473 2.0251341968 26.4638427316 
Al 42.5256813150 2.0250251863 28.4746335801 
Al 40.5466130528 4.0534979621 28.4838407344 
Al 42.5216727976 4.0533672553 30.4858980422 
Al 40.5292708572 2.0248240989 30.4835585498 
Al 42.5150766037 2.0247240845 32.4859217220 
Al 40.5189291470 4.0532201441 32.4875992138 
Al 42.5097356181 4.0530910248 34.4812283162 
Al 40.5061638051 2.0245267014 34.4814040030 
Al 42.5035505949 2.0244446789 36.4736900536 
Al 40.4974355562 4.0529481470 36.4741753091 
Al 42.4963072172 4.0529444427 38.4640398448 
Al 40.4894571514 2.0243589522 38.4637546183 
Al 42.4876583449 2.0244441497 40.4524491432 
Al 40.4802849228 4.0529269799 40.4546108321 
Al 42.4766128290 4.0530306986 42.4433101196 
Al 40.4693611177 2.0244600250 42.4439594200 

