&CONTROL
  calculation = 'scf'
  outdir = './out/'
  prefix = 'aiida'
  pseudo_dir = '/users/aglensk/Dropbox/Albert/scripts/dotfiles/scripts/potentials/quantum_espresso/pseudo_SSSPefV1.1_alalloy'
  tprnfor = .true.             	! calculate the pressure of the cell
  tstress = .true.
  verbosity = 'high'
  wf_collect = .true.
  etot_conv_thr = 2.5d-4    ! EDIFFG positive atomic units
  forc_conv_thr = 2.0d-5
/
&SYSTEM
  degauss =   4.4100000000d-02  ! SIGMA in Rydberg  so, 0.60001101eV
  ecutrho = 400                 ! AUGMENTATION charges
  ecutwfc =  40                 ! ENCUT in Rydberg, so 544eV
  ibrav = 0                     ! no symmetry
   nat              = 300
   ntyp             = 3
  occupations = 'smearing'      ! using smearing 
  smearing = 'mp'               ! methfessel paxton
  nosym= .true. 		! no symmetry
/
&ELECTRONS
  conv_thr =   1.0000000000d-12   	! EDIFF
  mixing_beta =   4.0000000000d-01      ! MIXING
  mixing_mode = 'local-TF'                 ! MIXING
/
&IONS
  !press_conv_thr = 0.05                 ! just for volume relaxations
/
ATOMIC_SPECIES
Al 26.9815385 Al.pbe-n-kjpaw_psl.1.0.0.UPF
Mg 24.305 Mg.pbe-n-kjpaw_psl.0.3.0.UPF
Si 28.085 Si.pbe-n-rrkjus_psl.1.0.0.UPF

K_POINTS automatic
4 7 4 0 0 0
CELL_PARAMETERS angstrom
20.28499869684709 0.00000000000000 0.00000000000000
0.00000000000000 12.17099911227282 0.00000000000000
0.00000000000000 0.00000000000000 20.28499869684709

ATOMIC_POSITIONS angstrom
Al 2.0043010192 2.0219390248 20.2488299637 
Al 20.2476165603 12.1686416278 20.2468508409 
Al 2.0013413310 12.1695528710 2.0015392433 
Al 20.2473016999 2.0217712756 2.0035220703 
Al 2.0026224691 2.0241345810 4.0346312070 
Al 20.2479240123 12.1684553574 4.0336019573 
Al 1.9973873189 12.1685162128 6.0574449617 
Al 20.2479631714 2.0219093909 6.0585255416 
Al 1.9959871160 2.0250437075 8.0800422830 
Al 20.2487606415 12.1688173146 8.0800174116 
Al 1.9972566122 12.1683849769 10.1016886728 
Al 20.2480134432 2.0217755090 10.1006567772 
Al 2.0025187503 2.0241488688 12.1221422971 
Al 20.2473990685 12.1684061439 12.1226836454 
Al 2.0008820052 12.1695560460 14.1454317822 
Al 20.2471725807 2.0216887240 14.1438633009 
Al 2.0043036651 2.0219120368 16.1754375844 
Al 20.2473080500 12.1686744368 16.1772304367 
Al 2.0029368003 12.1683595763 18.2179970575 
Al 20.2472720660 2.0232265129 18.2179044515 
Al 6.0587181621 2.0245806774 20.2471709931 
Al 4.0330061038 12.1695285288 20.2453913702 
Al 6.0341749231 12.1693533711 1.9803181788 
Al 4.0423884157 2.0250966252 2.0082989530 
Al 6.0891389724 2.0357706587 4.0596898646 
Al 4.0221918383 12.1695661004 4.0161846186 
Al 6.0047558452 0.0107449433 6.0021295387 
Al 4.0321541285 2.0206843456 6.0596563933 
Al 5.9945051535 2.0834987389 8.0858113729 
Al 4.0091910126 12.1668932263 8.0798665961 
Al 6.0088252180 0.0144380710 10.1571189272 
Al 4.0305184417 2.0202371909 10.1023956535 
Al 6.0921388780 2.0383847941 12.0948658578 
Al 4.0237719615 12.1697920591 12.1386478635 
Al 6.0300695663 12.1694586774 14.1706142673 
Al 4.0428054074 2.0253485136 14.1378719565 
Al 6.0594008007 2.0249881439 16.1773103425 
Al 4.0319540995 12.1695909717 16.1801610201 
Al 6.0569851067 12.1679494640 18.2181330561 
Al 4.0360509895 2.0216336895 18.2178848719 
Al 10.0992650411 2.0248156321 20.2355153359 
Al 8.0793040808 12.1696618815 20.2434852739 
Al 10.1075170306 12.1701979380 1.9881960400 
Al 8.0920752436 2.0183776622 2.0002168295 
Al 8.0063802861 12.1648913489 3.9665985973 
Al 8.0056119208 12.1638144733 12.1859436059 
Al 10.1069984369 12.1682590327 14.1597248586 
Al 8.0960610063 2.0194153787 14.1451222135 
Al 10.1001037870 2.0250077234 16.1916362279 
Al 8.0789521779 12.1702064048 16.1823745684 
Al 10.0997338922 12.1681807144 18.2188887211 
Al 8.0776059511 2.0217331749 18.2183733025 
Al 14.1522264175 2.0268609020 20.2366916968 
Al 12.1206277920 12.1678547413 20.2388248102 
Al 14.1999931276 12.1669609610 1.9497185066 
Al 12.1341249859 2.0241615691 1.9724852978 
Al 14.1362860124 2.0562932093 4.0494508148 
Al 12.2193447422 12.1671863905 3.9556033532 
Al 14.2270732422 0.0111672267 5.9800009353 
Al 14.2437603164 2.0971044141 8.0673430883 
Al 14.2233144965 12.1703937335 10.1531331645 
Al 14.1442633589 2.0467939492 12.1013027694 
Al 12.2338082137 12.1609410410 12.2032455840 
Al 14.2002931711 12.1658798519 14.1934868938 
Al 12.1448360618 2.0214066725 14.1823434801 
Al 14.1571646993 2.0266386476 16.1928252891 
Al 12.1205775201 12.1662793807 16.1878594902 
Al 14.1464224019 12.1665016352 18.2179414939 
Al 12.1231212750 2.0219459041 18.2190543536 
Al 18.2168175215 2.0221385246 20.2486309931 
Al 16.1863804399 12.1689951182 20.2386570610 
Al 18.2232729543 12.1694470355 1.9983678843 
Al 16.1752073923 2.0285659110 2.0060652960 
Al 18.2216526137 2.0252553784 4.0333103807 
Al 16.2123979666 12.1682495075 3.9983571676 
Al 18.2280133238 12.1682002940 6.0574227363 
Al 16.1998903341 2.0259777053 6.0524971548 
Al 18.2287382965 2.0249759728 8.0803836023 
Al 16.2108861073 12.1650934946 8.0761528305 
Al 18.2263294819 12.1682532117 10.1015801914 
Al 16.1909625854 2.0197344725 10.1017251860 
Al 18.2205122368 2.0242700504 12.1226995207 
Al 16.1966395985 12.1682881374 12.1420324809 
Al 18.2203492502 12.1693126245 14.1459514342 
Al 16.1772008028 2.0271641206 14.1415423297 
Al 18.2170297216 2.0220205181 16.1758646304 
Al 16.1862486748 12.1685066876 16.1849908205 
Al 18.2185648647 12.1683722766 18.2176086414 
Al 16.1789873051 2.0219205036 18.2186569415 
Mg 8.2912718334 1.9357492866 6.1884480720 
Mg 11.9511180436 1.9565956937 6.1819344297 
Si 10.1238606687 2.0932784629 3.8644123612 
Si 10.1171882733 12.1153693580 5.4640510383 
Si 7.5679035202 12.0582409739 8.0814260814 
Mg 10.1241157321 0.4469356636 8.0910904448 
Mg 8.2917338051 1.9413225810 9.9649127683 
Mg 11.9662842625 1.9462688004 9.9863481496 
Si 12.7134819546 12.0749703822 8.0678108809 
Si 10.1373065325 12.1307837610 10.7197168537 
Si 10.1372557314 2.0932567666 12.2971607802 
Al 2.0025245713 6.0828163631 20.2465603226 
Al 20.2471561762 4.0501869003 20.2486373432 
Al 2.0024716536 4.0508150336 2.0023425343 
Al 20.2474011852 6.0828629307 2.0024610700 
Al 2.0035284205 6.0816172475 4.0348555781 
Al 20.2472424321 4.0526555120 4.0353027329 
Al 2.0009941908 4.0517241601 6.0570269117 
Al 20.2473461508 6.0833772909 6.0591340954 
Al 1.9987944011 6.0829237861 8.0799808984 
Al 20.2475932765 4.0526946711 8.0799761358 
Al 2.0013069345 4.0517500898 10.1021511736 
Al 20.2472657158 6.0833820535 10.0999243959 
Al 2.0034945531 6.0815600964 12.1214083283 
Al 20.2471889852 4.0524443703 12.1210950554 
Al 2.0019387721 4.0510087125 14.1451513182 
Al 20.2472175607 6.0828899187 14.1447666064 
Al 2.0024949374 6.0828094838 16.1777088129 
Al 20.2470741537 4.0502451098 16.1756783600 
Al 2.0042396346 4.0498937361 18.2178891054 
Al 20.2474107104 6.0830200963 18.2176186958 
Al 6.0584609820 6.0826454389 20.2478340522 
Al 4.0347910185 4.0510341130 20.2472852954 
Al 6.0646528845 4.0472430875 2.0045772497 
Al 4.0319916711 6.0829740579 1.9994336472 
Al 6.0602046209 6.0774568563 4.0341983400 
Al 4.0382984051 4.0468435587 4.0368151214 
Al 6.0766228730 4.0372045958 6.0485145671 
Al 4.0393101919 6.0776367766 6.0556928560 
Al 6.0287079933 6.0868910276 8.0801936277 
Al 4.0154686419 4.0701712776 8.0804756791 
Al 6.0806504408 4.0362023341 10.1146228221 
Al 4.0407633125 6.0764339568 10.1033307097 
Al 6.0611888905 6.0764498321 12.1221851605 
Al 4.0386153822 4.0471393687 12.1195339827 
Al 6.0657816195 4.0473748526 14.1414814743 
Al 4.0320096631 6.0831275193 14.1477003649 
Al 6.0585472379 6.0825750583 16.1767229558 
Al 4.0349931642 4.0507848705 16.1769467978 
Al 6.0581170168 4.0529730183 18.2180981304 
Al 4.0345317217 6.0828407052 18.2178467712 
Al 10.0995862517 6.0848854460 20.2375463180 
Al 8.0754299744 4.0511484153 20.2454257667 
Al 10.1007499124 4.0846511537 1.9667294372 
Al 8.0736365928 6.0753602562 2.0091429907 
Al 10.1002016848 6.0869423578 4.0021942315 
Al 8.0989783603 4.0171561880 4.0435912355 
Al 10.0942505579 4.2019120609 6.0559944870 
Al 8.0512015958 6.1178018560 6.0391412512 
Al 10.0988231782 6.1523777658 8.0814170854 
Al 8.0766370276 4.1588343901 8.0845974404 
Al 10.1190255765 4.1917132285 10.1049679839 
Al 8.0586328314 6.1129752307 10.1217905275 
Al 10.1005382415 6.0856702158 12.1522381926 
Al 8.1093147787 4.0124872575 12.1058203552 
Al 10.1015336238 4.0873610702 14.1837844297 
Al 8.0728909821 6.0748903468 14.1373951679 
Al 10.0992290571 6.0860962034 16.1892432886 
Al 8.0747240520 4.0509102855 16.1797916544 
Al 10.0997164293 4.0533524384 18.2184145783 
Al 8.0803042257 6.0824882732 18.2180150495 
Al 14.1448359286 6.0823072946 20.2482563356 
Al 12.1240505102 4.0549823042 20.2422184236 
Al 14.1415619092 4.0513674946 2.0027108417 
Al 12.1262137866 6.0757724852 2.0086392140 
Al 14.1464388064 6.0818395020 4.0324308882 
Al 12.1123826818 4.0281741867 4.0426519460 
Al 14.1297824245 4.0462905685 6.0437995982 
Al 12.1454811288 6.1173203048 6.0379712404 
Al 14.1728352240 6.0872043005 8.0791585570 
Al 12.1261629856 4.1657554988 8.0822277849 
Al 14.1398785965 4.0489237543 10.1119610608 
Al 12.1504696824 6.1214748750 10.1211147682 
Al 14.1481596907 6.0834026914 12.1244786145 
Al 12.1236128806 4.0321414282 12.1222756498 
Al 14.1443617858 4.0510769764 14.1441575234 
Al 12.1264836670 6.0776267222 14.1399585023 
Al 14.1447718982 6.0819278746 16.1759799910 
Al 12.1244717352 4.0562009993 16.1844918064 
Al 14.1452751457 4.0551426449 18.2183521354 
Al 12.1206484299 6.0836021912 18.2181695693 
Al 18.2188437410 6.0827872583 20.2459808736 
Al 16.1776246738 4.0512309669 20.2475461798 
Al 18.2181367603 4.0509589698 2.0024573658 
Al 16.1812400125 6.0834942391 1.9988425563 
Al 18.2171546074 6.0817093244 4.0349741138 
Al 16.1784205563 4.0506314091 4.0371670242 
Al 18.2210567601 4.0531026667 6.0566935301 
Al 16.1729991358 6.0777262075 6.0554319716 
Al 18.2245371587 6.0835312815 8.0799327433 
Al 16.2105437297 4.0815231872 8.0798724171 
Al 18.2205540418 4.0519241891 10.1027036347 
Al 16.1754756851 6.0799011258 10.1038625327 
Al 18.2174112583 6.0818347394 12.1214570126 
Al 16.1807066018 4.0505911917 12.1201610577 
Al 18.2186754627 4.0516442543 14.1454661787 
Al 16.1812786424 6.0836662217 14.1486100205 
Al 18.2188887211 6.0830555512 16.1779903352 
Al 16.1780628325 4.0516050952 16.1766991428 
Al 18.2161629293 4.0495058492 18.2176790220 
Al 16.1784888202 6.0827994294 18.2178404211 
Al 2.0039067822 10.1410906787 20.2480097390 
Al 20.2472673034 8.1089205417 20.2492527763 
Al 2.0016588374 8.1068631007 2.0028330816 
Al 20.2470884415 10.1419410665 2.0037575542 
Al 2.0008841219 10.1385977249 4.0340004278 
Al 20.2473382131 8.1068530463 4.0350317942 
Al 2.0014344662 8.1072658046 6.0564643964 
Al 20.2477335085 10.1405731434 6.0592483977 
Al 1.9970264201 10.1368747239 8.0799671398 
Al 20.2475969808 8.1071832529 8.0799311558 
Al 2.0017170469 8.1074303787 10.1026782342 
Al 20.2475213084 10.1406752746 10.0999916015 
Al 2.0009576776 10.1386601678 12.1223566139 
Al 20.2471545886 8.1070647172 12.1214331997 
Al 2.0010936761 8.1068339960 14.1447433226 
Al 20.2470752121 10.1417659088 14.1438040331 
Al 2.0038125886 10.1411081415 16.1763922200 
Al 20.2471762849 8.1087189252 16.1750364680 
Al 2.0049132772 8.1084379321 18.2177737447 
Al 20.2470228235 10.1382765143 18.2178425378 
Al 6.0568073032 10.1382368260 20.2447161400 
Al 4.0355556796 8.1074864715 20.2456226206 
Al 6.0607332689 8.1108732056 2.0021790186 
Al 4.0313148534 10.1356004651 1.9996209759 
Al 6.0641120654 10.1299250395 4.0427757735 
Al 4.0349799348 8.1087739596 4.0387021673 
Al 6.0591467956 8.1171381346 6.0471884490 
Al 4.0365711707 10.1480218418 6.0565734069 
Al 5.9717542377 10.0481142428 8.0801227179 
Al 4.0091015817 8.0896225072 8.0803407389 
Al 6.0603432653 8.1159898201 10.1119441271 
Al 4.0380925551 10.1498813705 10.1024475129 
Al 6.0613989738 10.1281565293 12.1131880896 
Al 4.0345221965 8.1081886896 12.1173696479 
Al 6.0601929790 8.1108033542 14.1451370305 
Al 4.0308010224 10.1350612336 14.1474098466 
Al 6.0569644688 10.1378690478 16.1802800850 
Al 4.0357710547 8.1076769753 16.1787751050 
Al 6.0583487964 8.1065863410 18.2179240311 
Al 4.0357620587 10.1412499610 18.2179446690 
Al 10.0986173282 10.1350935134 20.2371663688 
Al 8.0757083216 8.1066821221 20.2452357921 
Al 10.0989427722 8.0792781511 1.9663658925 
Al 8.0763274590 10.1457908307 1.9962083121 
Al 10.1034730583 10.0607398819 3.9558229617 
Al 8.0631075539 8.1052533436 4.0320980357 
Al 10.1002202060 8.0530140278 5.9813053571 
Al 8.1289885291 10.1835428621 6.0887886571 
Al 10.0935933198 9.8297132828 8.0780324679 
Al 8.0023807647 8.0523652565 8.0803513225 
Al 10.1005445916 8.0531632557 10.1771451096 
Al 8.1315979019 10.1850753593 10.0717065504 
Al 10.1016521595 10.0639509292 12.1963556967 
Al 8.0626095981 8.1044352357 12.1245320614 
Al 10.0992549868 8.0781203113 14.1806617550 
Al 8.0760051900 10.1441943030 14.1518544060 
Al 10.0985162554 10.1337340571 16.1893814039 
Al 8.0754045739 8.1063281026 16.1793635501 
Al 10.0998391984 8.1080061235 18.2183135055 
Al 8.0781446535 10.1408361445 18.2181579274 
Al 14.1458328985 10.1367789428 20.2428724866 
Al 12.1245955627 8.1050083346 20.2434794529 
Al 14.1421418874 8.1088337566 2.0003364235 
Al 12.1236615649 10.1389062352 1.9883992440 
Al 14.1542208865 10.1088278025 4.0364775063 
Al 12.1354098282 8.1068715675 4.0325203191 
Al 14.1442654756 8.1120723212 6.0470561547 
Al 12.0742665765 10.1987053767 6.0860766239 
Al 14.2369720311 10.0390203324 8.0779800794 
Al 12.1935997418 8.0581608053 8.0797073138 
Al 14.1447380308 8.1123030424 10.1130231194 
Al 12.0660331083 10.1998669206 10.0658676090 
Al 14.1557200455 10.1116207998 12.1136378902 
Al 12.1366306400 8.1088051811 12.1223111047 
Al 14.1422741817 8.1099476747 14.1462837575 
Al 12.1234535983 10.1383320779 14.1584410747 
Al 14.1455921229 10.1373128826 16.1812294289 
Al 12.1250490675 8.1053274284 16.1812754673 
Al 14.1461789804 8.1058682476 18.2177795657 
Al 12.1225423551 10.1394671630 18.2184727878 
Al 18.2169323530 10.1409276921 20.2479171330 
Al 16.1764880011 8.1077341264 20.2459205474 
Al 18.2193427552 8.1066403171 2.0028680073 
Al 16.1846399760 10.1315247423 1.9979228463 
Al 18.2212991233 10.1372710776 4.0338808337 
Al 16.1810463336 8.1065815784 4.0392260527 
Al 18.2201169414 8.1062767724 6.0561781115 
Al 16.1853300231 10.1436481921 6.0571052300 
Al 18.2263776370 10.1365349921 8.0803497349 
Al 16.2102108772 8.0831247402 8.0805079589 
Al 18.2200047558 8.1072425208 10.1032682667 
Al 16.1832974535 10.1457966516 10.1027824821 
Al 18.2204534981 10.1381727955 12.1229154250 
Al 16.1820221364 8.1064117126 12.1179998979 
Al 18.2194983333 8.1064566926 14.1449364723 
Al 16.1847526908 10.1328460977 14.1484777262 
Al 18.2172953685 10.1408287360 16.1762392878 
Al 16.1763504150 8.1079754312 16.1782168231 
Al 18.2160576230 8.1088374609 18.2177843283 
Al 16.1763514734 10.1409515051 18.2179526066 

