&CONTROL
/
&SYSTEM
   ntyp             = 2
   nat              = 4
   ibrav            = 0
/
&ELECTRONS
/
&IONS
/
&CELL
/

ATOMIC_SPECIES
Al 26.9815385 Al_dummy.UPF
Mg 24.305 Mg_dummy.UPF

K_POINTS gamma

CELL_PARAMETERS angstrom
4.08035153304823 0.00000000000000 0.00000000000000
0.00000000000000 4.08035153304823 0.00000000000000
0.00000000000000 0.00000000000000 4.08035153304823

ATOMIC_POSITIONS angstrom
Al 0.0000000000 2.0401760590 2.0401760590 
Al 2.1865909263 0.0990408067 2.0332496585 
Al 2.0879406524 2.1479541107 4.0216981160 
Mg 0.0553122479 4.0393853351 0.0641500365 

