&CONTROL
  calculation = 'scf'
  outdir = './out/'
  prefix = 'aiida'
  pseudo_dir = '/users/aglensk/Dropbox/Albert/scripts/dotfiles/scripts/potentials/quantum_espresso/pseudo_SSSPefV1.1_alalloy'
  tprnfor = .true.             	! calculate the pressure of the cell
  tstress = .true.
  verbosity = 'high'
  wf_collect = .true.
  etot_conv_thr = 2.5d-4    ! EDIFFG positive atomic units
  forc_conv_thr = 2.0d-5
/
&SYSTEM
  degauss =   4.4100000000d-02  ! SIGMA in Rydberg  so, 0.60001101eV
  ecutrho = 400                 ! AUGMENTATION charges
  ecutwfc =  40                 ! ENCUT in Rydberg, so 544eV
  ibrav = 0                     ! no symmetry
   nat              = 264
   ntyp             = 3
  occupations = 'smearing'      ! using smearing 
  smearing = 'mp'               ! methfessel paxton
  nosym= .true. 		! no symmetry
/
&ELECTRONS
  conv_thr =   1.0000000000d-12   	! EDIFF
  mixing_beta =   4.0000000000d-01      ! MIXING
  mixing_mode = 'local-TF'                 ! MIXING
/
&IONS
  !press_conv_thr = 0.05                 ! just for volume relaxations
/
ATOMIC_SPECIES
Al 26.9815385 Al.pbe-n-kjpaw_psl.1.0.0.UPF
Mg 24.305 Mg.pbe-n-kjpaw_psl.0.3.0.UPF
Si 28.085 Si.pbe-n-rrkjus_psl.1.0.0.UPF

K_POINTS automatic
6 20 2 0 0 0
CELL_PARAMETERS angstrom
14.11231375561843 0.00000000000000 -3.84880639610082
0.00000000000000 4.05702969079954 0.00000000000000
0.00000000000000 0.00000000000000 79.10344465063480

ATOMIC_POSITIONS angstrom
Al 0.0583020992 0.0000000000 4.5183854333 
Mg 1.0732999731 2.0285166975 6.6152067377 
Mg 2.2217764482 2.0285166975 3.4054860712 
Mg 4.9561171177 0.0000000000 3.7620488508 
Mg 5.9765438206 0.0000000000 0.3659318621 
Si 0.8058220602 0.0000000000 2.0243213806 
Si 2.6273193412 0.0000000000 5.3254674645 
Al 3.1470581470 0.0000000000 1.1080023562 
Al 4.0320382387 2.0285166975 6.0576793872 
Si 4.5812945493 2.0285166975 1.8435734958 
Si 6.3139821358 2.0285166975 5.0962935149 
Al 7.1144573895 2.0285166975 2.5939991690 
Mg 8.1293938788 0.0000000000 4.6907368633 
Mg 9.2779063380 0.0000000000 1.4810998069 
Mg 12.0123068045 2.0285166975 1.8376488278 
Mg 13.0327149862 2.0285166975 -1.5584417021 
Si 7.8620180972 2.0285166975 0.0998811401 
Si 9.6834825691 2.0285166975 3.4010526246 
Al 10.2031573445 2.0285166975 -0.8164034877 
Al 11.0882956602 0.0000000000 4.1332624306 
Si 11.6374482521 0.0000000000 -0.0807894847 
Si 13.3700289447 0.0000000000 3.1719231258 
Al 0.0449996425 0.0000000000 11.3088212666 
Mg 1.0525948564 2.0285166975 13.3757070162 
Mg 2.1921525788 2.0285166975 10.1408483155 
Mg 4.9484906157 0.0000000000 10.5509701789 
Mg 6.0897411761 0.0000000000 7.3094269117 
Si 0.8502676541 0.0000000000 8.8099835063 
Si 2.6064126080 0.0000000000 12.0728430898 
Al 3.1395602351 0.0000000000 7.8744484698 
Al 4.0054386170 2.0285166975 12.8282345619 
Si 4.5419242940 2.0285166975 8.6252376877 
Si 6.2921017165 2.0285166975 11.8858884856 
Al 7.1011491118 2.0285166975 9.3844376482 
Mg 8.1087258045 0.0000000000 11.4513255144 
Mg 9.2483216277 0.0000000000 8.2164303005 
Mg 12.0046252681 2.0285166975 8.6265817978 
Mg 13.1458938205 2.0285166975 5.3850411765 
Si 7.9064139484 2.0285166975 6.8855390324 
Si 9.6625493770 2.0285166975 10.1484520629 
Al 10.1956641952 2.0285166975 5.9500796683 
Al 11.0616208953 0.0000000000 10.9038123135 
Si 11.5980854053 0.0000000000 6.7008318438 
Si 13.3482257853 0.0000000000 9.9614715289 
Al 0.0252428113 0.0000000000 18.0822858576 
Mg 1.0283193810 2.0285166975 20.1574706933 
Mg 2.1786395096 2.0285166975 16.9172101517 
Mg 4.9278505878 0.0000000000 17.3213136827 
Mg 6.0750284621 0.0000000000 14.0838223254 
Si 0.8369228633 0.0000000000 15.5827199494 
Si 2.5834807136 0.0000000000 18.8477967855 
Al 3.1213253177 0.0000000000 14.6358324743 
Al 3.9811118115 2.0285166975 19.6049975144 
Si 4.5214440776 2.0285166975 15.3908043088 
Si 6.2656121636 2.0285166975 18.6571337073 
Al 7.0814012766 2.0285166975 16.1579403399 
Mg 8.0844794339 0.0000000000 18.2331336424 
Mg 9.2348027375 0.0000000000 14.9928344709 
Mg 11.9839550771 2.0285166975 15.3969041345 
Mg 13.1311774022 2.0285166975 12.1593773224 
Si 7.8930977331 2.0285166975 13.6583479728 
Si 9.6396169535 2.0285166975 16.9234401550 
Al 10.1774493865 2.0285166975 12.7114467391 
Al 11.0372824479 0.0000000000 17.6805996082 
Si 11.5776094223 0.0000000000 13.4663884105 
Si 13.3217325282 0.0000000000 16.7326908210 
Al 14.1068298922 0.0000000000 21.0098084887 
Mg 1.0004656094 2.0285166975 26.9327672958 
Mg 2.1463480578 2.0285166975 23.6920024483 
Mg 4.8998687553 0.0000000000 24.1022735397 
Mg 6.0466301671 0.0000000000 20.8606075034 
Si 0.8089891858 0.0000000000 22.3565946527 
Si 2.5540346477 0.0000000000 25.6248566064 
Al 3.0953712922 0.0000000000 21.4114010738 
Al 3.9527045204 2.0285166975 26.3839533773 
Si 4.4925806359 2.0285166975 22.1696093562 
Si 6.2402375872 2.0285166975 25.4395837274 
Al 7.0506698393 2.0285166975 22.9342545501 
Mg 8.0566261914 0.0000000000 25.0084053736 
Mg 9.2025070523 0.0000000000 21.7676278258 
Mg 11.9560108161 2.0285166975 22.1778618748 
Mg 13.1027881032 2.0285166975 18.9361418624 
Si 7.8651487095 2.0285166975 20.4322359056 
Si 9.6101894088 2.0285166975 23.7004756338 
Al 10.1515170573 2.0285166975 19.4870481476 
Al 11.0088778027 0.0000000000 24.4595528252 
Si 11.5487480972 0.0000000000 20.2452061581 
Si 13.2963643019 0.0000000000 23.5151598914 
Al 14.0840313504 0.0000000000 27.8019948402 
Mg 0.9826683214 2.0285166975 33.7334564667 
Mg 2.1258482619 2.0285166975 30.4810915256 
Mg 4.8820614130 0.0000000000 30.8900423198 
Mg 6.0208666454 0.0000000000 27.6419949356 
Si 0.7826906660 0.0000000000 29.1421504138 
Si 2.5348106980 0.0000000000 32.4161682280 
Al 3.0677149036 0.0000000000 28.1916671795 
Al 3.9352549019 2.0285166975 33.1794285652 
Si 4.4675976506 2.0285166975 28.9502622904 
Si 6.2257751741 2.0285166975 32.2405507163 
Al 7.0278707684 2.0285166975 29.7264361391 
Mg 8.0388214950 0.0000000000 31.8090818443 
Mg 9.1820056688 0.0000000000 28.5567057904 
Mg 11.9382108823 2.0285166975 28.9656290674 
Mg 13.0770245816 2.0285166975 25.7175557535 
Si 7.8388681817 2.0285166975 27.2177704995 
Si 9.5909696925 2.0285166975 30.4917793177 
Al 10.1238580228 2.0285166975 26.2672936154 
Al 10.9914318885 0.0000000000 31.2550179587 
Si 11.5237582326 0.0000000000 27.0258643841 
Si 13.2819156474 0.0000000000 30.3161289971 
Al 14.0755941490 0.0000000000 34.6481091121 
Mg 1.1086056182 2.0285166975 40.7547151659 
Mg 2.1184450727 2.0285166975 37.3220674868 
Mg 4.8548939841 0.0000000000 37.6880374496 
Mg 6.0079806511 0.0000000000 34.4600850407 
Si 0.7615151107 0.0000000000 35.9609226284 
Si 2.4966289747 0.0000000000 39.2609616736 
Al 3.0410845897 0.0000000000 34.9940618886 
Al 3.9367847532 2.0285166975 40.0077566618 
Si 4.4464501417 2.0285166975 35.7433175509 
Si 6.2766402167 2.0285166975 39.0852176885 
Al 7.0194325086 2.0285166975 36.5725303022 
Mg 8.1647794297 0.0000000000 38.8303267848 
Mg 9.1746172966 0.0000000000 35.3976822807 
Mg 11.9110572121 2.0285166975 35.7636400725 
Mg 13.0641401748 2.0285166975 32.5356548546 
Si 7.8177079726 2.0285166975 34.0365501226 
Si 9.5527959069 2.0285166975 37.3365748800 
Al 10.0972255922 2.0285166975 33.0696819743 
Al 10.9929183473 0.0000000000 38.0833624598 
Si 11.5026244824 0.0000000000 33.8189095902 
Si 13.3328320202 0.0000000000 37.1607949109 
Al 0.7122010865 0.0000000000 43.1967827951 
Al 0.0461246732 2.0285166975 45.1376317625 
Al 2.5612002363 2.0285166975 43.7813796766 
Al 1.9592315253 0.0000000000 45.7670250824 
Al 4.5087311243 0.0000000000 44.5048199578 
Al 3.8736084028 2.0285166975 46.4155656213 
Al 6.4505193813 2.0285166975 45.1425954447 
Al 8.3741341053 0.0000000000 45.7754040743 
Al 10.2709449452 2.0285166975 39.9667766495 
Al 12.8674629977 2.0285166975 38.8497168961 
Al 12.1817620476 0.0000000000 40.6982953500 
Al 13.5066826092 0.0000000000 43.2181980676 
Al 1.3179819901 2.0285166975 47.6998162684 
Al 3.2147780130 0.0000000000 41.8911777308 
Al 5.8112886570 0.0000000000 40.7741126857 
Al 5.1255924695 2.0285166975 42.6226932563 
Al 7.7683590227 2.0285166975 41.2723848888 
Al 7.1022757301 0.0000000000 43.2132222143 
Al 9.6173576433 0.0000000000 41.8569759493 
Al 9.0153841697 2.0285166975 43.8426144758 
Al 10.9297668681 0.0000000000 44.4911581898 
Al 11.5648954106 2.0285166975 42.5804194057 
Al 0.6713163260 0.0000000000 49.6132168139 
Al 0.0270076173 2.0285166975 51.5253081749 
Al 2.5944336235 2.0285166975 50.2480828845 
Al 1.9515611017 0.0000000000 52.1620295408 
Al 4.5181525954 0.0000000000 50.8799204739 
Al 3.8749884969 2.0285166975 52.7983974164 
Al 6.4410984394 2.0285166975 51.5181970916 
Al 8.3642871757 0.0000000000 52.1547258370 
Al 10.2933212036 2.0285166975 46.4083375897 
Al 12.8575345749 2.0285166975 45.1253045794 
Al 12.2160289178 0.0000000000 47.0393904094 
Al 13.4972500254 0.0000000000 49.5937912477 
Al 1.3081260645 2.0285166975 54.0791311517 
Al 3.2371659133 0.0000000000 48.3327476671 
Al 5.8013755804 0.0000000000 47.0497067191 
Al 5.1598730984 2.0285166975 48.9637967825 
Al 7.7274716163 2.0285166975 47.6888077949 
Al 7.0831655535 0.0000000000 49.6009033894 
Al 9.6505894429 0.0000000000 48.3236728071 
Al 9.0077190378 2.0285166975 50.2376221094 
Al 10.9311437872 0.0000000000 50.8739873390 
Al 11.5743068273 2.0285166975 48.9555114549 
Al 0.6634194145 0.0000000000 55.9967926321 
Al 0.0176327138 2.0285166975 57.9140873927 
Al 2.5850587200 2.0285166975 56.6336431173 
Al 1.9384390944 0.0000000000 58.5501351160 
Al 4.5060661879 0.0000000000 57.2704015255 
Al 3.8584368922 2.0285166975 59.1853758441 
Al 6.4266286177 2.0285166975 57.9057597309 
Al 8.3463702937 0.0000000000 58.5402035181 
Al 10.2870118237 2.0285166975 52.7918446150 
Al 12.8536043757 2.0285166975 51.5114992956 
Al 12.2087945362 0.0000000000 53.4294973327 
Al 13.4827791454 0.0000000000 55.9813581204 
Al 1.2902091825 2.0285166975 60.4646093621 
Al 3.2308575918 0.0000000000 54.7162552215 
Al 5.7974533189 0.0000000000 53.4359077855 
Al 5.1526450669 2.0285166975 55.3539079393 
Al 7.7195794674 2.0285166975 54.0723889049 
Al 7.0737922375 0.0000000000 55.9896873697 
Al 9.6412097769 0.0000000000 54.7092340983 
Al 8.9945896221 2.0285166975 56.6257324471 
Al 10.9145868907 0.0000000000 57.2609805837 
Al 11.5622124822 2.0285166975 55.3459935649 
Al 0.6428053163 0.0000000000 62.3810431513 
Al 14.1088905082 2.0285166975 60.4489171411 
Al 2.5636302180 2.0285166975 63.0170972247 
Al 1.9182536297 0.0000000000 64.9315794084 
Al 4.4854552647 0.0000000000 63.6529856657 
Al 3.8422567698 2.0285166975 65.5664729963 
Al 6.4084603766 2.0285166975 64.2871923815 
Al 8.3322396747 0.0000000000 64.9205164297 
Al 10.2668295340 2.0285166975 59.1759236807 
Al 12.8345598171 2.0285166975 57.8958678213 
Al 12.1873427504 0.0000000000 59.8129884826 
Al 13.4646453008 0.0000000000 62.3628034712 
Al 1.2761018473 2.0285166975 66.8449434407 
Al 3.2106583685 0.0000000000 61.1003205286 
Al 5.7784045268 0.0000000000 59.8202514398 
Al 5.1311594138 2.0285166975 61.7373710428 
Al 7.6989680150 2.0285166975 60.4566187862 
Al 7.0527092883 0.0000000000 62.3732928219 
Al 9.6198093213 0.0000000000 61.0926792097 
Al 8.9744009823 2.0285166975 63.0071534558 
Al 10.8984099433 0.0000000000 63.6420592147 
Al 11.5416460099 2.0285166975 61.7285840552 
Al 0.6354963206 0.0000000000 68.7565617174 
Al 14.1063213529 2.0285166975 66.8241017963 
Al 2.5589263618 2.0285166975 69.3923998865 
Al 1.9164237349 0.0000000000 71.3092178584 
Al 4.4813107488 0.0000000000 70.0238675810 
Al 3.8395373281 2.0285166975 71.9355826971 
Al 6.4037798041 2.0285166975 70.6580182040 
Al 8.3333922227 0.0000000000 71.2920211866 
Al 10.2569857796 2.0285166975 65.5530064946 
Al 12.8228586506 2.0285166975 64.2751800588 
Al 12.1827939431 0.0000000000 66.1869009958 
Al 13.4599319194 0.0000000000 68.7336462274 
Al 1.2772390491 2.0285166975 73.2164476684 
Al 3.2008463646 0.0000000000 67.4774266263 
Al 5.7667060062 0.0000000000 66.1995615606 
Al 5.1266524114 2.0285166975 68.1112962562 
Al 7.6916637820 2.0285166975 66.8321251811 
Al 7.0501798212 0.0000000000 68.7484690103 
Al 9.6150901189 0.0000000000 67.4679765797 
Al 8.9725996631 2.0285166975 69.3848136020 
Al 10.8957037311 0.0000000000 70.0112022537 
Al 11.5374602181 2.0285166975 68.0994691456 
Al 0.6291308480 0.0000000000 75.1160546807 
Al 14.0893781570 2.0285166975 73.1841440456 
Al 2.5702041865 2.0285166975 75.7463841151 
Al 1.9546948891 0.0000000000 77.6164238800 
Al 4.5214742407 0.0000000000 76.4678876078 
Al 3.8693358260 2.0285166975 -0.7659353280 
Al 6.3704257646 2.0285166975 77.0371330584 
Al 8.3300113095 0.0000000000 -1.5779561701 
Al 10.2637433726 2.0285166975 71.9249060177 
Al 12.8170371721 2.0285166975 70.6394234460 
Al 12.1749520660 0.0000000000 72.5643886303 
Al 13.4265974593 0.0000000000 75.1127706070 
Al 1.2738512566 2.0285166975 0.3464427946 
Al 3.2075759112 0.0000000000 73.8492806402 
Al 5.7608670649 0.0000000000 72.5638017727 
Al 5.1187999508 2.0285166975 74.4887574318 
Al 7.6852797881 2.0285166975 73.1916202612 
Al 7.0332313335 0.0000000000 75.1084964426 
Al 9.6263700603 0.0000000000 73.8220052592 
Al 9.0108554712 2.0285166975 75.6920201527 
Al 10.9255064624 0.0000000000 -2.6903379969 
Al 11.5776178891 2.0285166975 74.5435346816 

