Al Cu 
 1.0000000000000000
     2.8802991929999999   -2.8802991929999999    0.0000000000000000
    -2.8802991929999999    0.0000000000000000   -2.8802991929999999
     2.8802991929999999    2.8802991929999999    0.0000000000000000
   2   1
Cartesian
  1.4401500000000018 -1.4401499999999989 -1.4401499999999994
  1.4401500000000018  1.4401499999999989 -1.4401499999999994
  0.0000000000000000  0.0000000000000000  0.0000000000000000
