&CONTROL
  calculation = 'scf'
  outdir = './out/'
  prefix = 'aiida'
  pseudo_dir = '/users/aglensk/Dropbox/Albert/scripts/dotfiles/scripts/potentials/quantum_espresso/pseudo_SSSPefV1.1_alalloy'
  tprnfor = .true.             	! calculate the pressure of the cell
  tstress = .true.
  verbosity = 'high'
  wf_collect = .true.
  etot_conv_thr = 2.5d-4    ! EDIFFG positive atomic units
  forc_conv_thr = 2.0d-5
/
&SYSTEM
  degauss =   4.4100000000d-02  ! SIGMA in Rydberg  so, 0.60001101eV
  ecutrho = 400                 ! AUGMENTATION charges
  ecutwfc =  40                 ! ENCUT in Rydberg, so 544eV
  ibrav = 0                     ! no symmetry
   nat              = 484
   ntyp             = 3
  occupations = 'smearing'      ! using smearing 
  smearing = 'mp'               ! methfessel paxton
  nosym= .true. 		! no symmetry
/
&ELECTRONS
  conv_thr =   1.0000000000d-12   	! EDIFF
  mixing_beta =   4.0000000000d-01      ! MIXING
  mixing_mode = 'local-TF'                 ! MIXING
/
&IONS
  !press_conv_thr = 0.05                 ! just for volume relaxations
/
ATOMIC_SPECIES
Al 26.9815385 Al.pbe-n-kjpaw_psl.1.0.0.UPF
Si 28.085 Si.pbe-n-rrkjus_psl.1.0.0.UPF
Mg 24.305 Mg.pbe-n-kjpaw_psl.0.3.0.UPF

K_POINTS automatic
2 20 2 0 0 0
CELL_PARAMETERS angstrom
44.62699692139272 0.00000000000000 0.00000000000000
0.00000000000000 4.05699952769853 0.00000000000000
0.00000000000000 0.00000000000000 44.62699692139272

ATOMIC_POSITIONS angstrom
Al 1.8570918569 2.0249436930 44.4222841883 
Al 44.4759591620 4.0532571865 44.4477010989 
Al 1.8533320528 4.0535879222 1.7883924839 
Al 44.4500988009 2.0249272885 1.8073486699 
Al 1.8278241237 2.0252776038 3.7291403784 
Al 44.4379372502 4.0535217751 3.8245748425 
Al 1.8361343226 4.0539853343 5.6777925930 
Al 44.3666285044 2.0251352551 5.8227416394 
Si 1.7618135001 2.0256538488 7.3619297579 
Mg 0.0473528935 4.0539816301 8.1934248505 
Al 1.7757102228 2.0258469985 10.0037813636 
Si 43.8740142640 2.0255691805 9.9772526517 
Si 1.9129861997 2.0259025621 12.6446846838 
Mg 0.1024772835 4.0542171139 11.7456686959 
Al 1.7174456952 4.0544314307 14.2389093489 
Al 44.3716551587 2.0257554508 14.1220516746 
Al 1.6042732111 2.0259803511 16.2622914399 
Al 44.3313815979 4.0543769254 16.1788232601 
Al 1.7776120857 4.0544922861 18.3111798725 
Al 44.4190768452 2.0258501736 18.2688012448 
Al 1.8537194105 2.0259962265 20.2435768215 
Al 44.4535029978 4.0542853778 20.3031992178 
Al 1.8025246904 4.0543324746 22.3425957988 
Al 44.4735392346 2.0257004164 22.3314116385 
Al 1.8255433699 2.0256310942 24.3950016723 
Al 44.4861283604 4.0539583463 24.3757988897 
Al 1.8517476962 4.0538842615 26.4252757673 
Al 44.4959250181 2.0252754871 26.4112594506 
Al 1.8708610479 2.0252241569 28.4394041365 
Al 44.5047464022 4.0535561716 28.4300974969 
Al 1.8839200831 4.0534519237 30.4478184502 
Al 44.5110176813 2.0248373284 30.4429029230 
Al 1.8863553566 2.0247542476 32.4567143151 
Al 44.5086019874 4.0531270089 32.4524470300 
Al 1.8870125947 4.0530566283 34.4591240549 
Al 44.5071795590 2.0244515582 34.4560056136 
Al 1.8878889122 2.0244542041 36.4560324685 
Al 44.5050215744 4.0528068567 36.4563912506 
Al 1.8859447151 4.0529111046 38.4506913497 
Al 44.5001430897 2.0243340808 38.4539325601 
Al 1.8811635990 2.0245420475 40.4409040840 
Al 44.4945025898 4.0529201006 40.4497339349 
Al 1.8730973508 4.0532122064 42.4336415228 
Al 44.4867369142 2.0246060779 42.4452977092 
Al 5.8991749374 2.0252929500 44.3887047192 
Al 3.8761468659 4.0535635801 44.4181132135 
Al 5.8945753290 4.0539689298 1.7628274036 
Al 3.8622157466 2.0252807789 1.7679514266 
Al 5.8246429731 2.0256861286 3.7376871195 
Al 3.9123711626 4.0540715902 3.8441353489 
Mg 6.0779399951 4.0546304013 6.1080432991 
Al 3.8287463464 2.0257199960 5.7661493118 
Si 5.3718133338 2.0261756175 7.8109599048 
Mg 3.3927614760 4.0544118511 8.2883883468 
Mg 6.3785121215 4.0549230363 9.4982816582 
Si 4.3204292349 2.0260311522 9.9562088616 
Al 5.8959268476 2.0264190391 11.8785196929 
Mg 3.5506790684 4.0545557873 11.6686199648 
Si 5.7182582451 4.0548838772 13.4489324419 
Mg 4.0955770755 2.0262010180 14.4344556743 
Al 5.8181198057 4.0550849646 16.1763943368 
Si 3.2851797491 4.0545616083 16.2131562776 
Si 5.9606991966 4.0549976503 18.8224793602 
Mg 4.1417213283 2.0262248310 17.9492337732 
Al 5.7613046944 2.0263825258 20.4198690341 
Al 3.7797381866 4.0546446891 20.3052778259 
Al 5.6507309996 4.0547828044 22.4346646958 
Al 3.7329202912 2.0260560235 22.3495825255 
Al 5.8217118606 2.0260041641 24.4670920129 
Al 3.8171869994 4.0542705608 24.4232295723 
Al 5.8994326467 4.0543636960 26.3839232142 
Al 3.8478210681 2.0255966977 26.4357249005 
Al 5.8465175715 2.0255966977 28.4576914426 
Al 3.8653865765 4.0538599193 28.4395671231 
Al 5.8698368236 4.0537572589 30.4844655595 
Al 3.8796235601 2.0251537763 30.4589301132 
Al 5.8973625054 2.0250823374 32.4889316820 
Al 3.8888084890 4.0533815431 32.4705570617 
Al 5.9181665783 4.0533386798 34.4759947535 
Al 3.8990888146 2.0247219677 34.4664526301 
Al 5.9300132685 2.0247812356 36.4566748896 
Al 3.9042588760 4.0530677410 36.4577766365 
Al 5.9296947038 4.0532386653 38.4446428542 
Al 3.9035169695 2.0245796191 38.4471686170 
Al 5.9260280349 2.0249050631 40.4288938780 
Al 3.9005160056 4.0532058563 40.4375353419 
Al 5.9192180534 4.0535704594 42.4183678810 
Al 3.8890026970 2.0249405179 42.4231950355 
Al 9.9707083171 2.0255871725 44.3723563185 
Al 7.9446110178 4.0539562296 44.3774967459 
Al 10.0216987748 4.0544107928 1.8091076549 
Al 7.9245594350 2.0257131167 1.6778881112 
Al 9.9327001640 2.0261226998 3.7201978127 
Al 7.9268867563 4.0545055155 3.6190164842 
Mg 9.5125048832 4.0550749102 6.2088123986 
Si 7.8396212009 2.0262840989 5.2970538234 
Si 10.4739643112 2.0268841858 7.8833492305 
Al 7.9283229433 2.0265603294 7.9088751516 
Mg 9.7226109904 4.0554633263 9.5790314546 
Si 8.1032742209 2.0268339140 10.5898255448 
Mg 10.2468308689 2.0274239466 12.3932646534 
Al 7.9152623206 4.0553082773 12.1535219765 
Si 9.4834006658 4.0559242396 14.0830809482 
Mg 7.4050201289 2.0267524207 14.5451897099 
Mg 10.4743686026 2.0274832144 15.7241870098 
Si 8.3789035795 4.0552865811 16.1803949165 
Al 9.9868318176 4.0557707782 18.0765606894 
Mg 7.6161253227 2.0267100865 17.8818668684 
Si 9.8053298553 2.0271842293 19.6425918510 
Mg 8.1570529132 4.0553336778 20.6076221668 
Al 9.8958757803 2.0270021923 22.3490020181 
Si 7.3455866489 2.0265576835 22.3793212264 
Si 10.0369660665 2.0264825403 24.9797588945 
Mg 8.2078809135 4.0549674872 24.1037689945 
Al 9.8366380958 4.0548388971 26.5667481195 
Al 7.8394883774 2.0260258604 26.4426338382 
Al 9.7424329104 2.0259597132 28.5594839708 
Al 7.8017860887 4.0542679149 28.4711500066 
Al 9.9226098129 4.0540858780 30.5759856997 
Al 7.8896152179 2.0254485281 30.5216688341 
Al 10.0222877490 2.0253945520 32.4674587291 
Al 7.9229068145 4.0536958744 32.5038640045 
Al 9.9714348775 4.0536434858 34.4935644953 
Al 7.9511886906 2.0250373574 34.4740584941 
Al 9.9831212270 2.0250606412 36.4688168607 
Al 7.9518284658 4.0533804848 36.4622201376 
Al 9.9909636332 4.0536059142 38.4510829408 
Al 7.9586903067 2.0249373429 38.4430452682 
Al 9.9905016615 2.0252601410 40.4220537334 
Al 7.9569678349 4.0535492923 40.4237254042 
Al 9.9815093532 4.0538773822 42.4049574721 
Al 7.9452968315 2.0252781330 42.3980675848 
Al 14.0673680892 2.0257755596 44.3034891963 
Al 12.0188654268 4.0541938301 44.3763653650 
Al 14.0743886833 4.0545118656 1.5972864844 
Al 11.9533427046 2.0259152624 1.7110167213 
Si 13.9908247224 2.0263073827 3.2616112545 
Mg 12.2087760150 4.0549230363 4.0491740551 
Al 14.0843996578 2.0267947549 5.8584261754 
Si 11.5115966820 2.0266106012 5.7435285736 
Si 14.2533421281 2.0272800104 8.5371884208 
Mg 12.5278518809 4.0554728514 7.4265512913 
Al 14.0717390930 4.0558866680 10.1001630549 
Al 12.0474976182 2.0273710289 9.8175072813 
Mg 13.5852844754 2.0277980749 12.4784568926 
Si 11.8695168010 4.0559506985 11.3922090115 
Si 14.5883303528 4.0564597669 14.1182241359 
Al 12.0349460639 4.0562480961 14.0998622159 
Mg 13.8398324722 2.0279626490 15.8104841710 
Si 12.2030233295 4.0562454502 16.7906918183 
Mg 14.3572503068 4.0564745839 18.5880760814 
Al 12.0125036584 2.0276716015 18.3606642918 
Si 13.5967644458 2.0278435841 20.2776420753 
Mg 11.5025821482 4.0558088790 20.7395894379 
Mg 14.5885668950 4.0561120975 21.9151454985 
Si 12.4774022424 2.0270831565 22.3674025681 
Al 14.1038215197 2.0269349868 24.2500722054 
Mg 11.7085003469 4.0553537866 24.0571273151 
Si 13.9208791371 4.0552421302 25.8055267021 
Mg 12.2556182525 2.0263931094 26.7474039274 
Al 14.0283544994 4.0547129530 28.4621026638 
Si 11.4561754235 4.0545303868 28.5055465252 
Si 14.1061149738 4.0541546710 31.0279395508 
Mg 12.3121888838 2.0258020184 30.2296714952 
Al 14.0897083635 2.0255379590 32.6870709758 
Al 11.9839582521 4.0539239498 32.5336857862 
Al 14.0834735976 4.0539318874 34.5902970310 
Al 12.0214065358 2.0252971834 34.4994140202 
Al 14.0856934960 2.0253829101 36.5108647527 
Al 12.0229845422 4.0537233916 36.4872189982 
Al 14.0853855149 4.0538810864 38.4678377497 
Al 12.0356265858 2.0252982417 38.4522376055 
Al 14.0773330253 2.0255035625 40.4253076441 
Al 12.0368267597 4.0538567442 40.4302157627 
Al 14.0810388533 4.0540726485 42.3899277809 
Al 12.0212594245 2.0255220837 42.3879909924 
Al 18.1427258327 2.0256787201 44.3667814366 
Al 16.1845097985 4.0542631523 44.4435237740 
Mg 18.4124336983 4.0544938736 2.0490434815 
Al 16.1105826838 2.0259210833 1.7180351987 
Si 17.7149373882 2.0261883178 3.7265093093 
Mg 15.6864122238 4.0549717206 4.1677557887 
Mg 18.7121824250 4.0549902418 5.4007789068 
Si 16.6399154724 2.0268206846 5.8465731351 
Al 18.2243360713 2.0270619894 7.7739063874 
Mg 15.8875016805 4.0555580490 7.5360121265 
Si 18.0455900640 4.0557284440 9.3455944534 
Mg 16.4155565062 2.0275684120 10.3267699659 
Al 18.2244805367 4.0563015430 12.0324017799 
Si 15.6654139429 4.0562856676 12.0150685803 
Si 18.3903336705 4.0566026448 14.7329153253 
Mg 16.6715004726 2.0279848744 13.6515242327 
Al 18.2059418715 2.0281478610 16.3037074943 
Al 16.1856856302 4.0566507999 16.0285215862 
Mg 17.7158846154 4.0566179909 18.6837349165 
Si 15.9999200872 2.0281378066 17.5989025845 
Si 18.7163147699 2.0279695283 20.3200323449 
Al 16.1560665234 2.0279457153 20.2962045535 
Mg 17.9612572086 4.0562597380 22.0093549173 
Si 16.3271473989 2.0274678683 22.9847909738 
Mg 18.4824401391 2.0271334283 24.7961306982 
Al 16.1391407903 4.0557533154 24.5550994748 
Si 17.7203984970 4.0553802454 26.4818289358 
Mg 15.6430482681 2.0264878321 26.9240528055 
Mg 18.6629181434 2.0265068825 28.1602568078 
Si 16.6332975823 4.0546679729 28.5980567560 
Al 18.2316916345 4.0544166137 30.6076939982 
Mg 15.9281588948 2.0258951536 30.2738429753 
Al 18.1518451436 2.0257416922 32.5064019384 
Al 16.1887326326 4.0541567877 32.5805073858 
Al 18.2044443000 4.0540975199 34.5473251956 
Al 16.1462402318 2.0254898039 34.5347408324 
Al 18.1999383560 2.0255458967 36.5051898563 
Al 16.1476092132 4.0539684006 36.5140334658 
Al 18.1910926298 4.0539943303 38.4791753714 
Al 16.1352539837 2.0255321381 38.4676139077 
Al 18.1791866717 2.0255326672 40.4316392494 
Al 16.1266400371 4.0540086181 40.4401658818 
Al 18.1821130217 4.0541070451 42.4102233145 
Al 16.1259044807 2.0255845266 42.3991608649 
Al 22.3472356246 2.0254564657 44.4100755409 
Al 20.2412071660 4.0541192161 44.2575719606 
Mg 22.0223769101 4.0542917279 2.0886688002 
Si 20.2302616645 2.0257972558 1.2896741844 
Si 22.8912297970 2.0260189811 3.8087529730 
Al 20.3186162667 2.0262068390 3.8580082586 
Mg 22.0974994361 4.0547833335 5.5708649291 
Si 20.4365053073 2.0266349434 6.5175036909 
Mg 22.6535001103 2.0265582127 8.2606875073 
Al 20.2631521449 4.0552892270 8.0741033271 
Si 21.8961819040 4.0552950479 9.9525951104 
Mg 19.7880827749 2.0274302967 10.4098280333 
Mg 22.8764175977 2.0270757480 11.5807305095 
Si 20.7835137923 4.0562110537 12.0453570963 
Al 22.3701601105 4.0561766571 13.9617215634 
Mg 20.0271311713 2.0279303692 13.7372128400 
Si 22.1822254701 2.0278113043 15.5334085710 
Mg 20.5499852434 4.0565349101 16.5244442425 
Al 22.3505715577 2.0278949143 18.2280191447 
Si 19.7972825207 2.0280743054 18.2173895621 
Si 22.5157081856 2.0276139212 20.9406492607 
Mg 20.8005697030 4.0564523585 19.8574970663 
Al 22.3332997427 4.0560041454 22.5158224879 
Al 20.3110193986 2.0275461865 22.2335609513 
Mg 21.8470552084 2.0270080133 24.9065345271 
Si 20.1244013511 4.0558914306 23.7972552663 
Si 22.8559056307 4.0552103795 26.5867901772 
Al 20.2798365732 4.0553696619 26.4723339092 
Mg 22.1468150478 2.0264740735 28.2775722203 
Si 20.3590655143 4.0548002672 29.0633083012 
Al 22.3929835236 4.0545764253 30.6121930628 
Al 20.2671262657 2.0260766614 30.7263688670 
Al 22.3204645495 2.0258459401 32.5719146063 
Al 20.2711924634 4.0543494082 32.6457745154 
Al 22.3140842599 4.0541440875 34.5588183955 
Al 20.2518722035 2.0256924787 34.5566418896 
Al 22.2932844204 2.0255596553 36.5153595839 
Al 20.2499539361 4.0540387812 36.5198073183 
Al 22.2906835144 4.0539329458 38.4912718333 
Al 20.2405446361 2.0255284338 38.4772041863 
Al 22.3038743148 2.0253834393 40.4544298535 
Al 20.2416421496 4.0539736924 40.4332876364 
Al 22.3073631801 4.0538890241 42.4430190721 
Al 20.2453156978 2.0255400757 42.3538924004 
Al 26.4104715057 2.0251045629 44.4303340320 
Al 24.3099406691 4.0538371647 44.4720892890 
Al 26.4482203620 4.0537921846 1.7837150865 
Al 24.4155718488 2.0254448238 1.7328442229 
Al 26.5427631625 2.0256210398 3.8340878612 
Al 24.6025603204 4.0543144825 3.7501958104 
Al 26.5109474410 4.0543726920 5.8639137431 
Al 24.5144708361 2.0260618444 5.7457167214 
Mg 26.1540205876 2.0262793363 8.2035046180 
Si 24.3211184793 4.0547563455 7.3336923327 
Si 27.0242879652 4.0549235655 9.9251837309 
Al 24.4753879240 4.0552722933 9.9651281435 
Mg 26.2177684494 2.0267825838 11.7008230440 
Si 24.5749362117 4.0556241961 12.6749589120 
Mg 26.7657690225 4.0554495676 14.4296888460 
Al 24.3942677035 2.0272752478 14.2404794177 
Si 26.0012894611 2.0270477016 16.1347396234 
Mg 23.9109399940 4.0561433190 16.5975834123 
Mg 26.9794962894 4.0555469363 17.7669560372 
Si 24.9015740200 2.0276308549 18.2365997532 
Al 26.4680565698 2.0269572123 20.1660751148 
Mg 24.1359080432 4.0560824636 19.9308304442 
Si 26.2784513169 4.0553839497 21.7328301908 
Mg 24.6615238911 2.0269736168 22.7517910729 
Al 26.4489924316 4.0550839062 24.4195660784 
Si 23.9034193275 4.0554014125 24.4492476282 
Si 26.5259226269 4.0547997380 27.0290600853 
Mg 24.8564108618 2.0266180097 26.1230658375 
Al 26.4298340998 2.0261454544 28.7064661161 
Al 24.4253341100 4.0547626956 28.6105151751 
Al 26.4283910336 4.0544123803 30.6465610060 
Al 24.3276728683 2.0260793073 30.5178661667 
Al 26.4003134200 2.0256998872 32.5706445810 
Al 24.3719311335 4.0542769110 32.5780535911 
Al 26.3927377190 4.0539445877 34.5468124229 
Al 24.3544968611 2.0255818807 34.5408284870 
Al 26.3762332110 2.0252934791 36.5190304862 
Al 24.3408160427 4.0539181288 36.5221526317 
Al 26.3709467307 4.0536387232 38.4968535945 
Al 24.3367292071 2.0253236422 38.4908431997 
Al 26.3758850124 2.0250839250 40.4753498162 
Al 24.3440995872 4.0537149248 40.4703252786 
Al 26.3773534792 4.0535212459 42.4616233553 
Al 24.3568363535 2.0252082816 42.4458247697 
Al 30.4448905127 2.0248203947 44.4569124866 
Al 28.4358575908 4.0534254648 44.4415398886 
Al 30.4592412694 4.0534693865 1.8397724159 
Al 28.4685004163 2.0251733559 1.8164521054 
Al 30.4780619861 2.0252918916 3.8578219882 
Al 28.4967912883 4.0539260665 3.8425970307 
Al 30.5035646234 4.0539684006 5.8602978752 
Al 28.4511222367 2.0257612718 5.9169510582 
Al 30.5414526533 2.0257104708 7.8724402423 
Al 28.5372918661 4.0544097344 7.8316232165 
Al 30.6337300461 4.0545261534 9.9453104569 
Al 28.7167453834 2.0262634610 9.8651623350 
Al 30.5917271342 2.0261761467 11.9914307635 
Al 28.6116634896 4.0550357511 11.8818132919 
Mg 30.2335895233 4.0549510827 14.3504329168 
Si 28.4166346995 2.0266259473 13.4803279966 
Si 31.0914598664 2.0263423084 16.0874073678 
Al 28.5596612451 2.0268921235 16.1291647415 
Mg 30.2822002710 4.0549293865 17.8712177062 
Si 28.6627439074 2.0266370601 18.8636694559 
Mg 30.8289117685 2.0259486005 20.6421245209 
Al 28.4816240111 4.0551183027 20.4338805883 
Si 30.0525961003 4.0544398975 22.3564480706 
Mg 27.9990345038 2.0263909927 22.8207899602 
Mg 30.9787297744 2.0257877306 24.0199399158 
Si 29.0038838171 4.0546944318 24.5063331489 
Al 30.5371308630 4.0543229494 26.5511104038 
Mg 28.2874572506 2.0261703258 26.2107848978 
Al 30.4479496861 2.0257533341 28.4706996767 
Al 28.5377506627 4.0543801005 28.5812257457 
Al 30.4921444500 4.0540027972 30.5474064261 
Al 28.4594493692 2.0257279336 30.5558568570 
Al 30.4714631463 2.0253305215 32.5223693316 
Al 28.4484292538 4.0539758091 32.5566356727 
Al 30.4530001534 4.0535926848 34.5169530696 
Al 28.4220741120 2.0253236422 34.5250595353 
Al 30.4361299839 2.0249331095 36.4996705379 
Al 28.4085964977 4.0536180853 36.5113722336 
Al 30.4277345875 4.0533106334 38.4874675783 
Al 28.4012774477 2.0250082526 38.4930414019 
Al 30.4248410465 2.0247367847 40.4743808927 
Al 28.3985622394 4.0533931850 40.4784015811 
Al 30.4311117964 4.0532010937 42.4636670377 
Al 28.4114053703 2.0248987129 42.4574285676 
Al 34.4547366466 2.0245028884 44.4704980531 
Al 32.4489967946 4.0531285964 44.4677786115 
Al 34.4568385385 4.0531968603 1.8506237238 
Al 32.4562941484 2.0248479119 1.8487297986 
Al 34.4690090852 2.0249262301 3.8630719553 
Al 32.4758927555 4.0535514090 3.8560989872 
Al 34.4844504762 4.0536249646 5.8817210854 
Al 32.5014901156 2.0253194088 5.8697013543 
Al 34.5008951872 2.0254014313 7.9170350642 
Al 32.5345890917 4.0540080889 7.8975528760 
Al 34.5190983541 4.0541345623 9.9613863314 
Al 32.5639118593 2.0258051935 9.9503847372 
Al 34.5448205999 2.0258184229 11.9897950768 
Al 32.5164922895 4.0545235075 12.0513907749 
Al 34.5819048096 4.0544060302 14.0247248729 
Al 32.5959344890 2.0260523193 13.9838506960 
Al 34.6711733008 2.0259702968 16.1126671128 
Al 32.7709460928 4.0545997090 16.0325793171 
Al 34.6291963186 4.0543367080 18.1709590244 
Al 32.6595352396 2.0259163207 18.0594635029 
Mg 34.2692341047 2.0255755306 20.5498757037 
Si 32.4636274861 4.0543795713 19.6552444781 
Si 35.1202616573 4.0539213039 22.3181287613 
Al 32.5942125464 4.0542351060 22.3004859931 
Mg 34.3170532033 2.0254273610 24.1073330030 
Si 32.6046854926 4.0540641817 24.9457476168 
Al 34.6238061195 4.0537858345 26.4804382581 
Al 32.5253290197 2.0255284338 26.6312706968 
Al 34.5469738220 2.0252447948 28.4792591181 
Al 32.5318929338 4.0539461752 28.5825973730 
Al 34.5306005499 4.0535868639 30.4992063199 
Al 32.4999211051 2.0253299924 30.5226054778 
Al 34.5009914974 2.0250040192 32.4873441504 
Al 32.4916495362 4.0536291980 32.5157043446 
Al 34.4852945138 4.0532931705 34.4889458366 
Al 32.4710370254 2.0249473972 34.5038162454 
Al 34.4733647428 2.0246298909 36.4831887845 
Al 32.4579076097 4.0532238483 36.4940363882 
Al 34.4641030833 4.0529518512 38.4776148278 
Al 32.4482495964 2.0246261867 38.4817995612 
Al 34.4568395969 2.0243970529 40.4721625818 
Al 32.4438479004 4.0530396946 40.4737056626 
Al 34.4544609453 4.0528894083 42.4693466967 
Al 32.4450020359 2.0245404600 42.4678157870 
Al 38.4604832448 2.0244632001 44.4715855123 
Al 36.4575490903 4.0529402093 44.4731148344 
Al 38.4583204975 4.0530449864 1.8538061956 
Al 36.4576131208 2.0246267158 1.8536209835 
Al 38.4517486458 2.0247574226 3.8593772401 
Al 36.4600669155 4.0532831161 3.8657421835 
Al 38.4492572794 4.0534169980 5.8786661454 
Al 36.4624249292 2.0250299489 5.8854406720 
Al 38.4419408753 2.0251992856 7.9104055321 
Al 36.4735492925 4.0537450879 7.9211912220 
Al 38.4441792949 4.0539398251 9.9665791474 
Al 36.4875089873 2.0255511884 9.9587351536 
Al 38.4743439835 2.0256464403 12.0310100438 
Al 36.5198332480 4.0541652546 12.0019423396 
Al 38.5033016188 4.0542287558 14.0862269067 
Al 36.5530851564 2.0258501736 14.0548588692 
Al 38.5218286421 2.0258729282 16.1485146354 
Al 36.5843648213 4.0543748087 16.1229072210 
Al 38.5445467489 4.0542266391 18.1802286216 
Al 36.5345157989 2.0257448673 18.2441659289 
Al 38.5574560270 2.0255998727 20.2436604315 
Al 36.5985652918 4.0541541418 20.1998270956 
Al 38.6316990604 4.0539228914 22.3145679278 
Al 36.7523584769 2.0253654472 22.3120225855 
Al 38.5589223770 2.0252167484 24.3815626879 
Al 36.6041544615 4.0537694300 24.4307931021 
Al 38.5543042475 4.0535900389 26.4258329909 
Al 36.5159988300 2.0251992856 26.3763686804 
Al 38.5279194718 2.0249733269 28.4318998745 
Al 36.5549214013 4.0535471756 28.4635213879 
Al 38.5266632051 4.0532767660 30.4525027268 
Al 36.5299542914 2.0249696227 30.4672101490 
Al 38.5120409804 2.0246626999 32.4634248113 
Al 36.5118484931 4.0532979331 32.4769077174 
Al 38.4998392123 4.0530190567 34.4676226409 
Al 36.4944592008 2.0246695792 34.4764344998 
Al 38.4903658819 2.0244467956 36.4679172594 
Al 36.4839227533 4.0529947146 36.4756072627 
Al 38.4807210980 4.0528005065 38.4692199605 
Al 36.4738837325 2.0243854110 38.4739619175 
Al 38.4714620844 2.0242869841 40.4686446117 
Al 36.4643347297 4.0527650517 40.4722213205 
Al 38.4645785472 4.0528184986 42.4685788606 
Al 36.4596853787 2.0243383143 42.4704415644 
Al 42.4631129892 2.0246394161 44.4538961765 
Al 40.4613689543 4.0529973605 44.4638992133 
Al 42.4478737439 4.0532280817 1.8334900241 
Al 40.4490089622 2.0246341243 1.8437814625 
Al 42.4268331288 2.0248489703 3.8363717900 
Al 40.4507536594 4.0532196149 3.8610605528 
Al 42.4703537209 4.0535434713 5.9196969588 
Al 40.4293066363 2.0249071798 5.8653150044 
Al 42.3845984373 2.0251765310 7.8642792714 
Al 40.4289938925 4.0536704739 7.9073474170 
Al 42.2394848167 4.0539646964 9.9788931011 
Al 40.3602357808 2.0254136024 9.9743956239 
Al 42.3981379654 2.0256289775 12.0927962457 
Al 40.4412242362 4.0541075742 12.0492068606 
Al 42.4667717204 4.0542515104 14.0471683368 
Al 40.4580414880 2.0257448673 14.1137822224 
Al 42.4192854742 2.0258205396 16.1688435071 
Al 40.4823370721 4.0542816735 16.1462100687 
Al 42.4505074588 4.0542515104 18.2372305324 
Al 40.5005460599 2.0257681511 18.2079268152 
Al 42.4794635066 2.0257041206 20.2912842638 
Al 40.5254417309 4.0540991074 20.2611169293 
Al 42.5059308340 4.0540303144 22.3327853825 
Al 40.5491615702 2.0254442946 22.3228484928 
Al 42.5127799746 2.0253596263 24.3697435149 
Al 40.5444910521 4.0537540839 24.3774044134 
Al 42.5170525514 4.0536228479 26.4049098532 
Al 40.5314124374 2.0250950377 26.4100645684 
Al 42.5133795324 2.0249542765 28.4246416799 
Al 40.5241050293 4.0533915975 28.4306917629 
Al 42.5114617942 4.0532476613 30.4390134705 
Al 40.5148592451 2.0247584810 30.4395950363 
Al 42.5081655493 2.0245499851 32.4492994840 
Al 40.5097357513 4.0530402238 32.4525089438 
Al 42.5044359084 4.0528888791 34.4550652657 
Al 40.5032485679 2.0244462664 34.4584996258 
Al 42.5000379166 2.0243208514 36.4565198407 
Al 40.4956548749 4.0528391365 36.4606400144 
Al 42.4920891457 4.0527618766 38.4574219546 
Al 40.4866503955 2.0243076220 38.4620771266 
Al 42.4837090954 2.0243372559 40.4553522094 
Al 40.4778559994 4.0527793394 40.4621902373 
Al 42.4767170769 4.0529761934 42.4551240008 
Al 40.4703099324 2.0243822360 42.4613725253 

