Al 
 1.0000000000000000
     4.0414799263648051    0.0000000000000000    0.0000000000000000
     0.0000000000000000    4.0414799263648051    0.0000000000000000
     0.0000000000000000    0.0000000000000000    4.0414799263648051
   4
Cartesian
  0.0000000000000000  0.0000000000000000  0.0000000000000000
  0.0000000000000000  2.0207399631824021  2.0207399631824021
  2.0207399631824021  0.0000000000000000  2.0207399631824021
  2.0207399631824021  2.0207399631824021  0.0000000000000000
