&CONTROL
  calculation = 'scf'
  outdir = './out/'
  prefix = 'aiida'
  pseudo_dir = '/users/aglensk/Dropbox/Albert/scripts/dotfiles/scripts/potentials/quantum_espresso/pseudo_SSSPefV1.1_alalloy'
  tprnfor = .true.             	! calculate the pressure of the cell
  tstress = .true.
  verbosity = 'high'
  wf_collect = .true.
  etot_conv_thr = 2.5d-4    ! EDIFFG positive atomic units
  forc_conv_thr = 2.0d-5
/
&SYSTEM
  degauss =   4.4100000000d-02  ! SIGMA in Rydberg  so, 0.60001101eV
  ecutrho = 400                 ! AUGMENTATION charges
  ecutwfc =  40                 ! ENCUT in Rydberg, so 544eV
  ibrav = 0                     ! no symmetry
   nat              = 256
   ntyp             = 2
  occupations = 'smearing'      ! using smearing 
  smearing = 'mp'               ! methfessel paxton
  nosym= .true. 		! no symmetry
/
&ELECTRONS
  conv_thr =   1.0000000000d-12   	! EDIFF
  mixing_beta =   4.0000000000d-01      ! MIXING
  mixing_mode = 'local-TF'                 ! MIXING
/
&IONS
  !press_conv_thr = 0.05                 ! just for volume relaxations
/
ATOMIC_SPECIES
Si 28.085 Si.pbe-n-rrkjus_psl.1.0.0.UPF
Al 26.9815385 Al.pbe-n-kjpaw_psl.1.0.0.UPF

K_POINTS automatic
5 5 5 0 0 0
CELL_PARAMETERS angstrom
16.22799863997135 0.00000000000000 0.00000000000000
0.00000000000000 16.22799863997135 0.00000000000000
0.00000000000000 0.00000000000000 16.22799863997135

ATOMIC_POSITIONS angstrom
Si 0.0000000000 0.0113593180 0.0000000000 
Al 2.0154386119 0.0016669082 2.0154386119 
Al 2.0049397361 2.0284997638 0.0000000000 
Al 0.0000000000 2.0284997638 2.0049397361 
Al 0.0000000000 0.0020219861 4.0497132867 
Al 2.0282505214 2.0284997638 4.0541768965 
Al 2.0282568715 0.0002640594 6.0846197990 
Al 0.0000000000 2.0284997638 6.0838720716 
Al 0.0000000000 0.0003132729 8.1139995846 
Al 2.0287574732 2.0284997638 8.1139995846 
Al 2.0282568715 0.0002640594 10.1433788409 
Al 0.0000000000 2.0284997638 10.1441270975 
Al 0.0000000000 0.0020219861 12.1782853533 
Al 2.0282505214 2.0284997638 12.1738217435 
Al 2.0154386119 0.0016669082 14.2125605572 
Al 0.0000000000 2.0284997638 14.2230589039 
Si 0.0000000000 4.0456402097 0.0000000000 
Al 2.0161821059 6.0727868674 0.0000000000 
Al 2.0154386119 4.0553331487 2.0154386119 
Al 0.0000000000 6.0727868674 2.0161821059 
Al 0.0000000000 4.0549780708 4.0497132867 
Al 2.0283066142 6.0853378925 4.0554104085 
Al 2.0282568715 4.0567354683 6.0846197990 
Al 0.0000000000 6.0855537968 6.0847976026 
Al 0.0000000000 4.0566862548 8.1139995846 
Al 2.0286272956 6.0858136228 8.1139995846 
Al 2.0282568715 4.0567354683 10.1433788409 
Al 0.0000000000 6.0855537968 10.1432015666 
Al 0.0000000000 4.0549780708 12.1782853533 
Al 2.0283066142 6.0853378925 12.1725887606 
Al 2.0154386119 4.0553331487 14.2125605572 
Al 0.0000000000 6.0727868674 14.2118165341 
Al 0.0000000000 8.1085273630 0.0000000000 
Al 2.0282579299 10.1424993484 0.0000000000 
Al 2.0284632506 8.1127311468 2.0284632506 
Al 0.0000000000 10.1424993484 2.0282579299 
Al 0.0000000000 8.1118273121 4.0545092197 
Al 2.0281229897 10.1424993484 4.0565073929 
Al 2.0283145518 8.1137074788 6.0855739055 
Al 0.0000000000 10.1424993484 6.0859067580 
Al 0.0000000000 8.1136968952 8.1139995846 
Al 2.0285600901 10.1424993484 8.1139995846 
Al 2.0283145518 8.1137074788 10.1424247344 
Al 0.0000000000 10.1424993484 10.1420924111 
Al 0.0000000000 8.1118273121 12.1734894202 
Al 2.0281229897 10.1424993484 12.1714912471 
Al 2.0284632506 8.1127311468 14.1995353893 
Al 0.0000000000 10.1424993484 14.1997407101 
Al 0.0000000000 12.1764708046 0.0000000000 
Al 2.0161821059 14.2122113003 0.0000000000 
Al 2.0284632506 12.1722675500 2.0284632506 
Al 0.0000000000 14.2122113003 2.0161821059 
Al 0.0000000000 12.1731708555 4.0545092197 
Al 2.0283066142 14.1996608043 4.0554104085 
Al 2.0283145518 12.1712912181 6.0855739055 
Al 0.0000000000 14.1994443709 6.0847976026 
Al 0.0000000000 12.1713018016 8.1139995846 
Al 2.0286272956 14.1991850740 8.1139995846 
Al 2.0283145518 12.1712912181 10.1424247344 
Al 0.0000000000 14.1994443709 10.1432015666 
Al 0.0000000000 12.1731708555 12.1734894202 
Al 2.0283066142 14.1996608043 12.1725887606 
Al 2.0284632506 12.1722675500 14.1995353893 
Al 0.0000000000 14.2122113003 14.2118165341 
Al 4.0497132867 0.0020219861 0.0000000000 
Al 6.0838720716 2.0284997638 0.0000000000 
Al 6.0846197990 0.0002640594 2.0282568715 
Al 4.0541768965 2.0284997638 2.0282505214 
Al 4.0554675597 16.2273525146 4.0554675597 
Al 6.0853971603 2.0284997638 4.0565317350 
Al 6.0857448298 16.2279795896 6.0857448298 
Al 4.0565317350 2.0284997638 6.0853971603 
Al 4.0566661461 0.0000201087 8.1139995846 
Al 6.0858406108 2.0284997638 8.1139995846 
Al 6.0857448298 16.2279795896 10.1422538102 
Al 4.0565317350 2.0284997638 10.1426014796 
Al 4.0554675597 16.2273525146 12.1725310803 
Al 6.0853971603 2.0284997638 12.1714669049 
Al 6.0846197990 0.0002640594 14.1997417685 
Al 4.0541768965 2.0284997638 14.1997486478 
Al 4.0497132867 4.0549780708 0.0000000000 
Al 6.0847976026 6.0855537968 0.0000000000 
Al 6.0846197990 4.0567354683 2.0282568715 
Al 4.0554104085 6.0853378925 2.0283066142 
Al 4.0554675597 4.0576456531 4.0554675597 
Al 6.0854791828 6.0853712307 4.0567571645 
Al 6.0857448298 4.0570191073 6.0857448298 
Al 4.0567571645 6.0853712307 6.0854791828 
Al 4.0566661461 4.0569799481 8.1139995846 
Al 6.0855067000 6.0852966167 8.1139995846 
Al 6.0857448298 4.0570191073 10.1422538102 
Al 4.0567571645 6.0853712307 10.1425194572 
Al 4.0554675597 4.0576456531 12.1725310803 
Al 6.0854791828 6.0853712307 12.1712414754 
Al 6.0846197990 4.0567354683 14.1997417685 
Al 4.0554104085 6.0853378925 14.1996920258 
Al 4.0545092197 8.1118273121 0.0000000000 
Al 6.0859067580 10.1424993484 0.0000000000 
Al 6.0855739055 8.1137074788 2.0283145518 
Al 4.0565073929 10.1424993484 2.0281229897 
Al 4.0576948666 8.1147261449 4.0576948666 
Al 6.0855601469 10.1424993484 4.0569698938 
Al 6.0853484760 8.1139964095 6.0853484760 
Al 4.0569698938 10.1424993484 6.0855601469 
Al 4.0570037611 8.1139244414 8.1139995846 
Al 6.0850526660 10.1424993484 8.1139995846 
Al 6.0853484760 8.1139964095 10.1426506931 
Al 4.0569698938 10.1424993484 10.1424384930 
Al 4.0576948666 8.1147261449 12.1703037734 
Al 6.0855601469 10.1424993484 12.1710292754 
Al 6.0855739055 8.1137074788 14.1996846173 
Al 4.0565073929 10.1424993484 14.1998756503 
Al 4.0545092197 12.1731708555 0.0000000000 
Al 6.0847976026 14.1994443709 0.0000000000 
Al 6.0855739055 12.1712912181 2.0283145518 
Al 4.0554104085 14.1996608043 2.0283066142 
Al 4.0576948666 12.1702720228 4.0576948666 
Al 6.0854791828 14.1996274662 4.0567571645 
Al 6.0853484760 12.1710022873 6.0853484760 
Al 4.0567571645 14.1996274662 6.0854791828 
Al 4.0570037611 12.1710742554 8.1139995846 
Al 6.0855067000 14.1997020802 8.1139995846 
Al 6.0853484760 12.1710022873 10.1426506931 
Al 4.0567571645 14.1996274662 10.1425194572 
Al 4.0576948666 12.1702720228 12.1703037734 
Al 6.0854791828 14.1996274662 12.1712414754 
Al 6.0855739055 12.1712912181 14.1996846173 
Al 4.0554104085 14.1996608043 14.1996920258 
Al 8.1139995846 0.0003132729 0.0000000000 
Al 10.1441270975 2.0284997638 0.0000000000 
Al 10.1433788409 0.0002640594 2.0282568715 
Al 8.1139995846 2.0284997638 2.0287574732 
Al 8.1139995846 0.0000201087 4.0566661461 
Al 10.1426014796 2.0284997638 4.0565317350 
Al 10.1422538102 16.2279795896 6.0857448298 
Al 8.1139995846 2.0284997638 6.0858406108 
Al 8.1139995846 16.2279737686 8.1139995846 
Al 10.1421585583 2.0284997638 8.1139995846 
Al 10.1422538102 16.2279795896 10.1422538102 
Al 8.1139995846 2.0284997638 10.1421585583 
Al 8.1139995846 0.0000201087 12.1713330231 
Al 10.1426014796 2.0284997638 12.1714669049 
Al 10.1433788409 0.0002640594 14.1997417685 
Al 8.1139995846 2.0284997638 14.1992416960 
Al 8.1139995846 4.0566862548 0.0000000000 
Al 10.1432015666 6.0855537968 0.0000000000 
Al 10.1433788409 4.0567354683 2.0282568715 
Al 8.1139995846 6.0858136228 2.0286272956 
Al 8.1139995846 4.0569799481 4.0566661461 
Al 10.1425194572 6.0853712307 4.0567571645 
Al 10.1422538102 4.0570191073 6.0857448298 
Al 8.1139995846 6.0852966167 6.0855067000 
Al 8.1139995846 4.0570249282 8.1139995846 
Al 10.1424919399 6.0852966167 8.1139995846 
Al 10.1422538102 4.0570191073 10.1422538102 
Al 8.1139995846 6.0852966167 10.1424919399 
Al 8.1139995846 4.0569799481 12.1713330231 
Al 10.1425194572 6.0853712307 12.1712414754 
Al 10.1433788409 4.0567354683 14.1997417685 
Al 8.1139995846 6.0858136228 14.1993713444 
Al 8.1139995846 8.1136968952 0.0000000000 
Al 10.1420924111 10.1424993484 0.0000000000 
Al 10.1424247344 8.1137074788 2.0283145518 
Al 8.1139995846 10.1424993484 2.0285600901 
Al 8.1139995846 8.1139244414 4.0570037611 
Al 10.1424384930 10.1424993484 4.0569698938 
Al 10.1426506931 8.1139964095 6.0853484760 
Al 8.1139995846 10.1424993484 6.0850526660 
Al 8.1139995846 8.1140689068 8.1139995846 
Al 10.1429459740 10.1424993484 8.1139995846 
Al 10.1426506931 8.1139964095 10.1426506931 
Al 8.1139995846 10.1424993484 10.1429459740 
Al 8.1139995846 8.1139244414 12.1709948789 
Al 10.1424384930 10.1424993484 12.1710292754 
Al 10.1424247344 8.1137074788 14.1996846173 
Al 8.1139995846 10.1424993484 14.1994385499 
Al 8.1139995846 12.1713018016 0.0000000000 
Al 10.1432015666 14.1994443709 0.0000000000 
Al 10.1424247344 12.1712912181 2.0283145518 
Al 8.1139995846 14.1991850740 2.0286272956 
Al 8.1139995846 12.1710742554 4.0570037611 
Al 10.1425194572 14.1996274662 4.0567571645 
Al 10.1426506931 12.1710022873 6.0853484760 
Al 8.1139995846 14.1997020802 6.0855067000 
Al 8.1139995846 12.1709297901 8.1139995846 
Al 10.1424919399 14.1997020802 8.1139995846 
Al 10.1426506931 12.1710022873 10.1426506931 
Al 8.1139995846 14.1997020802 10.1424919399 
Al 8.1139995846 12.1710742554 12.1709948789 
Al 10.1425194572 14.1996274662 12.1712414754 
Al 10.1424247344 12.1712912181 14.1996846173 
Al 8.1139995846 14.1991850740 14.1993713444 
Al 12.1782853533 0.0020219861 0.0000000000 
Al 14.2230589039 2.0284997638 0.0000000000 
Al 14.2125605572 0.0016669082 2.0154386119 
Al 12.1738217435 2.0284997638 2.0282505214 
Al 12.1725310803 16.2273525146 4.0554675597 
Al 14.1997486478 2.0284997638 4.0541768965 
Al 14.1997417685 0.0002640594 6.0846197990 
Al 12.1714669049 2.0284997638 6.0853971603 
Al 12.1713330231 0.0000201087 8.1139995846 
Al 14.1992416960 2.0284997638 8.1139995846 
Al 14.1997417685 0.0002640594 10.1433788409 
Al 12.1714669049 2.0284997638 10.1426014796 
Al 12.1725310803 16.2273525146 12.1725310803 
Al 14.1997486478 2.0284997638 12.1738217435 
Al 14.2125605572 0.0016669082 14.2125605572 
Al 12.1738217435 2.0284997638 14.1997486478 
Al 12.1782853533 4.0549780708 0.0000000000 
Al 14.2118165341 6.0727868674 0.0000000000 
Al 14.2125605572 4.0553331487 2.0154386119 
Al 12.1725887606 6.0853378925 2.0283066142 
Al 12.1725310803 4.0576456531 4.0554675597 
Al 14.1996920258 6.0853378925 4.0554104085 
Al 14.1997417685 4.0567354683 6.0846197990 
Al 12.1712414754 6.0853712307 6.0854791828 
Al 12.1713330231 4.0569799481 8.1139995846 
Al 14.1993713444 6.0858136228 8.1139995846 
Al 14.1997417685 4.0567354683 10.1433788409 
Al 12.1712414754 6.0853712307 10.1425194572 
Al 12.1725310803 4.0576456531 12.1725310803 
Al 14.1996920258 6.0853378925 12.1725887606 
Al 14.2125605572 4.0553331487 14.2125605572 
Al 12.1725887606 6.0853378925 14.1996920258 
Al 12.1734894202 8.1118273121 0.0000000000 
Al 14.1997407101 10.1424993484 0.0000000000 
Al 14.1995353893 8.1127311468 2.0284632506 
Al 12.1714912471 10.1424993484 2.0281229897 
Al 12.1703037734 8.1147261449 4.0576948666 
Al 14.1998756503 10.1424993484 4.0565073929 
Al 14.1996846173 8.1137074788 6.0855739055 
Al 12.1710292754 10.1424993484 6.0855601469 
Al 12.1709948789 8.1139244414 8.1139995846 
Al 14.1994385499 10.1424993484 8.1139995846 
Al 14.1996846173 8.1137074788 10.1424247344 
Al 12.1710292754 10.1424993484 10.1424384930 
Al 12.1703037734 8.1147261449 12.1703037734 
Al 14.1998756503 10.1424993484 12.1714912471 
Al 14.1995353893 8.1127311468 14.1995353893 
Al 12.1714912471 10.1424993484 14.1998756503 
Al 12.1734894202 12.1731708555 0.0000000000 
Al 14.2118165341 14.2122113003 0.0000000000 
Al 14.1995353893 12.1722675500 2.0284632506 
Al 12.1725887606 14.1996608043 2.0283066142 
Al 12.1703037734 12.1702720228 4.0576948666 
Al 14.1996920258 14.1996608043 4.0554104085 
Al 14.1996846173 12.1712912181 6.0855739055 
Al 12.1712414754 14.1996274662 6.0854791828 
Al 12.1709948789 12.1710742554 8.1139995846 
Al 14.1993713444 14.1991850740 8.1139995846 
Al 14.1996846173 12.1712912181 10.1424247344 
Al 12.1712414754 14.1996274662 10.1425194572 
Al 12.1703037734 12.1702720228 12.1703037734 
Al 14.1996920258 14.1996608043 12.1725887606 
Al 14.1995353893 12.1722675500 14.1995353893 
Al 12.1725887606 14.1996608043 14.1996920258 

