&CONTROL
  calculation = 'scf'
  outdir = './out/'
  prefix = 'aiida'
  pseudo_dir = '/users/aglensk/Dropbox/Albert/scripts/dotfiles/scripts/potentials/quantum_espresso/pseudo_SSSPefV1.1_alalloy'
  tprnfor = .true.             	! calculate the pressure of the cell
  tstress = .true.
  verbosity = 'high'
  wf_collect = .true.
  etot_conv_thr = 2.5d-4    ! EDIFFG positive atomic units
  forc_conv_thr = 2.0d-5
/
&SYSTEM
  degauss =   4.4100000000d-02  ! SIGMA in Rydberg  so, 0.60001101eV
  ecutrho = 400                 ! AUGMENTATION charges
  ecutwfc =  40                 ! ENCUT in Rydberg, so 544eV
  ibrav = 0                     ! no symmetry
   nat              = 256
   ntyp             = 2
  occupations = 'smearing'      ! using smearing 
  smearing = 'mp'               ! methfessel paxton
  nosym= .true. 		! no symmetry
/
&ELECTRONS
  conv_thr =   1.0000000000d-12   	! EDIFF
  mixing_beta =   4.0000000000d-01      ! MIXING
  mixing_mode = 'local-TF'                 ! MIXING
/
&IONS
  !press_conv_thr = 0.05                 ! just for volume relaxations
/
ATOMIC_SPECIES
Mg 24.305 Mg.pbe-n-kjpaw_psl.0.3.0.UPF
Al 26.9815385 Al.pbe-n-kjpaw_psl.1.0.0.UPF

K_POINTS automatic
5 5 5 0 0 0
CELL_PARAMETERS angstrom
16.22799863997135 0.00000000000000 0.00000000000000
0.00000000000000 16.22799863997135 0.00000000000000
0.00000000000000 0.00000000000000 16.22799863997135

ATOMIC_POSITIONS angstrom
Mg 0.0000000000 0.0000000000 0.0000000000 
Al 2.0520619083 0.0000000000 2.0520619083 
Al 2.0520619083 2.0520619083 0.0000000000 
Al 0.0000000000 2.0520619083 2.0520619083 
Al 0.0000000000 0.0000000000 4.0593035653 
Al 2.0300735369 2.0300735369 4.0618833042 
Al 2.0284563713 0.0000000000 6.0867698460 
Al 0.0000000000 2.0284563713 6.0867698460 
Al 0.0000000000 0.0000000000 8.1139995846 
Al 2.0283484192 2.0283484192 8.1139995846 
Al 2.0284563713 0.0000000000 10.1412293231 
Al 0.0000000000 2.0284563713 10.1412293231 
Al 0.0000000000 0.0000000000 12.1686950747 
Al 2.0300735369 2.0300735369 12.1661153358 
Al 2.0520619083 0.0000000000 14.1759367316 
Al 0.0000000000 2.0520619083 14.1759367316 
Al 0.0000000000 4.0593035653 0.0000000000 
Al 2.0284563713 6.0867698460 0.0000000000 
Al 2.0300735369 4.0618833042 2.0300735369 
Al 0.0000000000 6.0867698460 2.0284563713 
Al 0.0000000000 4.0589230869 4.0589230869 
Al 2.0284092745 6.0855829015 4.0569974110 
Al 2.0284092745 4.0569974110 6.0855829015 
Al 0.0000000000 6.0856442861 6.0856442861 
Al 0.0000000000 4.0569963526 8.1139995846 
Al 2.0272196842 6.0855358048 8.1139995846 
Al 2.0284092745 4.0569974110 10.1424157384 
Al 0.0000000000 6.0856442861 10.1423543539 
Al 0.0000000000 4.0589230869 12.1690760823 
Al 2.0284092745 6.0855829015 12.1710017582 
Al 2.0300735369 4.0618833042 14.1979256323 
Al 0.0000000000 6.0867698460 14.1995427978 
Al 0.0000000000 8.1139995846 0.0000000000 
Al 2.0284563713 10.1412293231 0.0000000000 
Al 2.0283484192 8.1139995846 2.0283484192 
Al 0.0000000000 10.1412293231 2.0284563713 
Al 0.0000000000 8.1139995846 4.0569963526 
Al 2.0284092745 10.1424157384 4.0569974110 
Al 2.0272196842 8.1139995846 6.0855358048 
Al 0.0000000000 10.1423543539 6.0856442861 
Al 0.0000000000 8.1139995846 8.1139995846 
Al 2.0272196842 10.1424628352 8.1139995846 
Al 2.0272196842 8.1139995846 10.1424628352 
Al 0.0000000000 10.1423543539 10.1423543539 
Al 0.0000000000 8.1139995846 12.1710022873 
Al 2.0284092745 10.1424157384 12.1710017582 
Al 2.0283484192 8.1139995846 14.1996502208 
Al 0.0000000000 10.1412293231 14.1995427978 
Al 0.0000000000 12.1686950747 0.0000000000 
Al 2.0520619083 14.1759367316 0.0000000000 
Al 2.0300735369 12.1661153358 2.0300735369 
Al 0.0000000000 14.1759367316 2.0520619083 
Al 0.0000000000 12.1690760823 4.0589230869 
Al 2.0300735369 14.1979256323 4.0618833042 
Al 2.0284092745 12.1710017582 6.0855829015 
Al 0.0000000000 14.1995427978 6.0867698460 
Al 0.0000000000 12.1710022873 8.1139995846 
Al 2.0283484192 14.1996502208 8.1139995846 
Al 2.0284092745 12.1710017582 10.1424157384 
Al 0.0000000000 14.1995427978 10.1412293231 
Al 0.0000000000 12.1690760823 12.1690760823 
Al 2.0300735369 14.1979256323 12.1661153358 
Al 2.0300735369 12.1661153358 14.1979256323 
Al 0.0000000000 14.1759367316 14.1759367316 
Al 4.0593035653 0.0000000000 0.0000000000 
Al 6.0867698460 2.0284563713 0.0000000000 
Al 6.0867698460 0.0000000000 2.0284563713 
Al 4.0618833042 2.0300735369 2.0300735369 
Al 4.0589230869 0.0000000000 4.0589230869 
Al 6.0855829015 2.0284092745 4.0569974110 
Al 6.0856442861 0.0000000000 6.0856442861 
Al 4.0569974110 2.0284092745 6.0855829015 
Al 4.0569963526 0.0000000000 8.1139995846 
Al 6.0855358048 2.0272196842 8.1139995846 
Al 6.0856442861 0.0000000000 10.1423543539 
Al 4.0569974110 2.0284092745 10.1424157384 
Al 4.0589230869 0.0000000000 12.1690760823 
Al 6.0855829015 2.0284092745 12.1710017582 
Al 6.0867698460 0.0000000000 14.1995427978 
Al 4.0618833042 2.0300735369 14.1979256323 
Al 4.0589230869 4.0589230869 0.0000000000 
Al 6.0856442861 6.0856442861 0.0000000000 
Al 6.0855829015 4.0569974110 2.0284092745 
Al 4.0569974110 6.0855829015 2.0284092745 
Al 4.0569968818 4.0569968818 4.0569968818 
Al 6.0839191684 6.0839191684 4.0521109886 
Al 6.0839191684 4.0521109886 6.0839191684 
Al 4.0521109886 6.0839191684 6.0839191684 
Al 4.0550717351 4.0550717351 8.1139995846 
Al 6.0619313261 6.0619313261 8.1139995846 
Al 6.0839191684 4.0521109886 10.1440794716 
Al 4.0521109886 6.0839191684 10.1440794716 
Al 4.0569968818 4.0569968818 12.1710017582 
Al 6.0839191684 6.0839191684 12.1758881805 
Al 6.0855829015 4.0569974110 14.1995893654 
Al 4.0569974110 6.0855829015 14.1995893654 
Al 4.0569963526 8.1139995846 0.0000000000 
Al 6.0856442861 10.1423543539 0.0000000000 
Al 6.0855358048 8.1139995846 2.0272196842 
Al 4.0569974110 10.1424157384 2.0284092745 
Al 4.0550717351 8.1139995846 4.0550717351 
Al 6.0839191684 10.1440794716 4.0521109886 
Al 6.0619313261 8.1139995846 6.0619313261 
Al 4.0521109886 10.1440794716 6.0839191684 
Al 4.0546891400 8.1139995846 8.1139995846 
Al 6.0619313261 10.1660673139 8.1139995846 
Al 6.0619313261 8.1139995846 10.1660673139 
Al 4.0521109886 10.1440794716 10.1440794716 
Al 4.0550717351 8.1139995846 12.1729274340 
Al 6.0839191684 10.1440794716 12.1758881805 
Al 6.0855358048 8.1139995846 14.2007794850 
Al 4.0569974110 10.1424157384 14.1995893654 
Al 4.0589230869 12.1690760823 0.0000000000 
Al 6.0867698460 14.1995427978 0.0000000000 
Al 6.0855829015 12.1710017582 2.0284092745 
Al 4.0618833042 14.1979256323 2.0300735369 
Al 4.0569968818 12.1710017582 4.0569968818 
Al 6.0855829015 14.1995893654 4.0569974110 
Al 6.0839191684 12.1758881805 6.0839191684 
Al 4.0569974110 14.1995893654 6.0855829015 
Al 4.0550717351 12.1729274340 8.1139995846 
Al 6.0855358048 14.2007794850 8.1139995846 
Al 6.0839191684 12.1758881805 10.1440794716 
Al 4.0569974110 14.1995893654 10.1424157384 
Al 4.0569968818 12.1710017582 12.1710017582 
Al 6.0855829015 14.1995893654 12.1710017582 
Al 6.0855829015 12.1710017582 14.1995893654 
Al 4.0618833042 14.1979256323 14.1979256323 
Al 8.1139995846 0.0000000000 0.0000000000 
Al 10.1412293231 2.0284563713 0.0000000000 
Al 10.1412293231 0.0000000000 2.0284563713 
Al 8.1139995846 2.0283484192 2.0283484192 
Al 8.1139995846 0.0000000000 4.0569963526 
Al 10.1424157384 2.0284092745 4.0569974110 
Al 10.1423543539 0.0000000000 6.0856442861 
Al 8.1139995846 2.0272196842 6.0855358048 
Al 8.1139995846 0.0000000000 8.1139995846 
Al 10.1424628352 2.0272196842 8.1139995846 
Al 10.1423543539 0.0000000000 10.1423543539 
Al 8.1139995846 2.0272196842 10.1424628352 
Al 8.1139995846 0.0000000000 12.1710022873 
Al 10.1424157384 2.0284092745 12.1710017582 
Al 10.1412293231 0.0000000000 14.1995427978 
Al 8.1139995846 2.0283484192 14.1996502208 
Al 8.1139995846 4.0569963526 0.0000000000 
Al 10.1423543539 6.0856442861 0.0000000000 
Al 10.1424157384 4.0569974110 2.0284092745 
Al 8.1139995846 6.0855358048 2.0272196842 
Al 8.1139995846 4.0550717351 4.0550717351 
Al 10.1440794716 6.0839191684 4.0521109886 
Al 10.1440794716 4.0521109886 6.0839191684 
Al 8.1139995846 6.0619313261 6.0619313261 
Al 8.1139995846 4.0546891400 8.1139995846 
Al 10.1660673139 6.0619313261 8.1139995846 
Al 10.1440794716 4.0521109886 10.1440794716 
Al 8.1139995846 6.0619313261 10.1660673139 
Al 8.1139995846 4.0550717351 12.1729274340 
Al 10.1440794716 6.0839191684 12.1758881805 
Al 10.1424157384 4.0569974110 14.1995893654 
Al 8.1139995846 6.0855358048 14.2007794850 
Al 8.1139995846 8.1139995846 0.0000000000 
Al 10.1423543539 10.1423543539 0.0000000000 
Al 10.1424628352 8.1139995846 2.0272196842 
Al 8.1139995846 10.1424628352 2.0272196842 
Al 8.1139995846 8.1139995846 4.0546891400 
Al 10.1440794716 10.1440794716 4.0521109886 
Al 10.1660673139 8.1139995846 6.0619313261 
Al 8.1139995846 10.1660673139 6.0619313261 
Mg 8.1139995846 8.1139995846 8.1139995846 
Al 10.1660673139 10.1660673139 8.1139995846 
Al 10.1660673139 8.1139995846 10.1660673139 
Al 8.1139995846 10.1660673139 10.1660673139 
Al 8.1139995846 8.1139995846 12.1733100292 
Al 10.1440794716 10.1440794716 12.1758881805 
Al 10.1424628352 8.1139995846 14.2007794850 
Al 8.1139995846 10.1424628352 14.2007794850 
Al 8.1139995846 12.1710022873 0.0000000000 
Al 10.1412293231 14.1995427978 0.0000000000 
Al 10.1424157384 12.1710017582 2.0284092745 
Al 8.1139995846 14.1996502208 2.0283484192 
Al 8.1139995846 12.1729274340 4.0550717351 
Al 10.1424157384 14.1995893654 4.0569974110 
Al 10.1440794716 12.1758881805 6.0839191684 
Al 8.1139995846 14.2007794850 6.0855358048 
Al 8.1139995846 12.1733100292 8.1139995846 
Al 10.1424628352 14.2007794850 8.1139995846 
Al 10.1440794716 12.1758881805 10.1440794716 
Al 8.1139995846 14.2007794850 10.1424628352 
Al 8.1139995846 12.1729274340 12.1729274340 
Al 10.1424157384 14.1995893654 12.1710017582 
Al 10.1424157384 12.1710017582 14.1995893654 
Al 8.1139995846 14.1996502208 14.1996502208 
Al 12.1686950747 0.0000000000 0.0000000000 
Al 14.1759367316 2.0520619083 0.0000000000 
Al 14.1759367316 0.0000000000 2.0520619083 
Al 12.1661153358 2.0300735369 2.0300735369 
Al 12.1690760823 0.0000000000 4.0589230869 
Al 14.1979256323 2.0300735369 4.0618833042 
Al 14.1995427978 0.0000000000 6.0867698460 
Al 12.1710017582 2.0284092745 6.0855829015 
Al 12.1710022873 0.0000000000 8.1139995846 
Al 14.1996502208 2.0283484192 8.1139995846 
Al 14.1995427978 0.0000000000 10.1412293231 
Al 12.1710017582 2.0284092745 10.1424157384 
Al 12.1690760823 0.0000000000 12.1690760823 
Al 14.1979256323 2.0300735369 12.1661153358 
Al 14.1759367316 0.0000000000 14.1759367316 
Al 12.1661153358 2.0300735369 14.1979256323 
Al 12.1690760823 4.0589230869 0.0000000000 
Al 14.1995427978 6.0867698460 0.0000000000 
Al 14.1979256323 4.0618833042 2.0300735369 
Al 12.1710017582 6.0855829015 2.0284092745 
Al 12.1710017582 4.0569968818 4.0569968818 
Al 14.1995893654 6.0855829015 4.0569974110 
Al 14.1995893654 4.0569974110 6.0855829015 
Al 12.1758881805 6.0839191684 6.0839191684 
Al 12.1729274340 4.0550717351 8.1139995846 
Al 14.2007794850 6.0855358048 8.1139995846 
Al 14.1995893654 4.0569974110 10.1424157384 
Al 12.1758881805 6.0839191684 10.1440794716 
Al 12.1710017582 4.0569968818 12.1710017582 
Al 14.1995893654 6.0855829015 12.1710017582 
Al 14.1979256323 4.0618833042 14.1979256323 
Al 12.1710017582 6.0855829015 14.1995893654 
Al 12.1710022873 8.1139995846 0.0000000000 
Al 14.1995427978 10.1412293231 0.0000000000 
Al 14.1996502208 8.1139995846 2.0283484192 
Al 12.1710017582 10.1424157384 2.0284092745 
Al 12.1729274340 8.1139995846 4.0550717351 
Al 14.1995893654 10.1424157384 4.0569974110 
Al 14.2007794850 8.1139995846 6.0855358048 
Al 12.1758881805 10.1440794716 6.0839191684 
Al 12.1733100292 8.1139995846 8.1139995846 
Al 14.2007794850 10.1424628352 8.1139995846 
Al 14.2007794850 8.1139995846 10.1424628352 
Al 12.1758881805 10.1440794716 10.1440794716 
Al 12.1729274340 8.1139995846 12.1729274340 
Al 14.1995893654 10.1424157384 12.1710017582 
Al 14.1996502208 8.1139995846 14.1996502208 
Al 12.1710017582 10.1424157384 14.1995893654 
Al 12.1690760823 12.1690760823 0.0000000000 
Al 14.1759367316 14.1759367316 0.0000000000 
Al 14.1979256323 12.1661153358 2.0300735369 
Al 12.1661153358 14.1979256323 2.0300735369 
Al 12.1710017582 12.1710017582 4.0569968818 
Al 14.1979256323 14.1979256323 4.0618833042 
Al 14.1995893654 12.1710017582 6.0855829015 
Al 12.1710017582 14.1995893654 6.0855829015 
Al 12.1729274340 12.1729274340 8.1139995846 
Al 14.1996502208 14.1996502208 8.1139995846 
Al 14.1995893654 12.1710017582 10.1424157384 
Al 12.1710017582 14.1995893654 10.1424157384 
Al 12.1710017582 12.1710017582 12.1710017582 
Al 14.1979256323 14.1979256323 12.1661153358 
Al 14.1979256323 12.1661153358 14.1979256323 
Al 12.1661153358 14.1979256323 14.1979256323 

