&CONTROL
  calculation = 'relax'     	! SCF relax and VlumeCell relax
  outdir = './out/'
  prefix = 'aiida'
  pseudo_dir = '/users/aglensk/Dropbox/Albert/scripts/dotfiles/scripts/aiida-qe/qe_pseudopotentials'
  tprnfor = .true.             	! calculate the pressure of the cell
  tstress = .true.
  verbosity = 'high'
  wf_collect = .true.
  etot_conv_thr = 2.5d-4    ! EDIFFG positive atomic units
  forc_conv_thr = 1.0d-5    ! EDIFFG negative atomic units *51.422063 gives eV/ang
/
&SYSTEM
  degauss =   4.4100000000d-02  ! SIGMA in Rydberg  so, 0.60001101eV
  ecutrho = 400                 ! AUGMENTATION charges
  ecutwfc =  40                 ! ENCUT in Rydberg, so 544eV
  ibrav = 0                     ! no symmetry
     nat              = 108
     ntyp             = 2
  occupations = 'smearing'      ! using smearing 
  smearing = 'mp'               ! methfessel paxton
  nosym= .true. 		! no symmetry
/
&ELECTRONS
  conv_thr =   1.0000000000d-12   	! EDIFF
  mixing_beta =   4.0000000000d-01      ! MIXING
  mixing_mode = 'local-TF'                 ! MIXING
/
&IONS
  !press_conv_thr = 0.05                 ! just for volume relaxations
/
ATOMIC_SPECIES
Al     26.9815385 Al.pbe-n-kjpaw_psl.1.0.0.UPF
Si     28.085 Si.pbe-n-rrkjus_psl.1.0.0.UPF
K_POINTS automatic
7 7 7 0 0 0                  	! in a 4x4x4 supercell
CELL_PARAMETERS angstrom
12.17100000000000 0.00000000000000 0.00000000000000
0.00000000000000 12.17100000000000 0.00000000000000
0.00000000000000 0.00000000000000 12.17100000000000
ATOMIC_POSITIONS angstrom
Al       1.977767943   0.020967769   2.007532734
Al       1.977768541   2.007533382   0.020967153
Al       0.000000013   0.013522112   4.045750437
Al      -0.000000476   2.028973592   6.084829126
Al       2.027928652   0.000802952   6.083128735
Al       2.020753152   2.028260096   4.050193625
Al       0.000000056  -0.000474373   8.114670322
Al      -0.000000377   2.014978216  10.153750223
Al       2.020753029   0.000238820  10.149306107
Al       2.027928634   2.027695901   8.116371493
Al       0.000000025   4.045750424   0.013521850
Al       0.000000162   6.084829014   2.028973840
Al       2.020752937   4.050193839   2.028260186
Al       2.027928761   6.083128196   0.000803781
Al       0.000000389   4.044167045   4.044167401
Al       0.000000029   6.084460247   6.084460005
Al       2.025297760   4.055444462   6.082420893
Al       2.025297700   6.082419780   4.055444144
Al       0.000000328   4.052524179   8.119110908
Al       0.000000062   6.080389402  10.146976328
Al       2.025754392   4.050563198  10.148937841
Al       2.027777211   6.082704662   8.116795435
Al      -0.000000591   8.114670128  -0.000474230
Al       0.000000118  10.153750243   2.014978201
Al       2.027928708   8.116370780   2.027696681
Al       2.020753077  10.149306358   0.000239775
Al      -0.000000491   8.119111023   4.052524413
Al      -0.000000099  10.146976114   6.080389165
Al       2.027777302   8.116795924   6.082704312
Al       2.025754282  10.148939038   4.050561952
Al      -0.000000144   8.115040081   8.115039821
Al       0.000000360  10.155332341  10.155332643
Al       2.025297974   8.117079218  10.144055547
Al       2.025297744  10.144056005   8.117079265
Al       4.043696750   0.002587041   0.002586447
Al       4.043696903   2.025913596   2.025913030
Al       6.085500097   0.001769368   2.026730821
Al       6.085499579   2.026730675   0.001769480
Al       4.045828150   0.001635151   4.047096178
Al       4.054519880   2.027381313   6.082700840
Al       6.085499780   0.001793891   6.080114652
Al       6.085499306   2.026760776   4.052731732
Al       4.054518767   0.001117666   8.116798735
Al       4.045829318   2.026865291  10.152404573
Al       6.085500260   0.001739090  10.146768461
Al       6.085499855   2.026705914   8.119384539
Al       4.045828712   4.047096020   0.001634595
Al       4.054518995   6.082700764   2.027381713
Al       6.085500491   4.052731629   2.026760753
Al       6.085499973   6.080115015   0.001793656
Al       4.056079025   4.057186735   4.057187172
Al       4.056601061   6.085417338   6.085417239
Al       6.085499730   4.054887501   6.085259304
Al       6.085500140   6.085259567   4.054887487
Al       4.056706068   4.055437077   8.114818297
Al       4.056706721   6.084682095  10.144063415
Al       6.085500379   4.053173200  10.146327485
Al       6.085500267   6.085767154   8.113733292
Al       4.054519659   8.116798559   0.001118096
Al       4.045828397  10.152404245   2.026865362
Al       6.085499642   8.119384856   2.026705552
Al       6.085499845  10.146768353   0.001738874
Al       4.056706626   8.114818362   4.055437030
Al       4.056706865  10.144063551   6.084681449
Al       6.085499723   8.113733085   6.085767313
Al       6.085500406  10.146327139   4.053173606
Al       4.056601129   8.114082859   8.114082628
Al       4.056079052  10.142312599  10.142313049
Al       6.085499497   8.114240120  10.144612489
Al       6.085500386  10.144612434   8.114240054
Al       8.127303321   0.002586031   0.002586864
Al       8.127303247   2.025913285   2.025914019
Al      10.193231528   0.020967230   2.007533172
Al      10.193232343   2.007532737   0.020967805
Al       8.125171422   0.001634338   4.047095862
Al       8.116480901   2.027381865   6.082700200
Al      10.143071386   0.000803812   6.083128553
Al      10.150247454   2.028259941   4.050193658
Al       8.116480871   0.001117669   8.116798776
Al       8.125171588   2.026865258  10.152404243
Al      10.150246650   0.000239837  10.149306098
Al      10.143071569   2.027696142   8.116370636
Al       8.125171639   4.047096236   0.001635284
Al       8.116480563   6.082700450   2.027381483
Al      10.150246342   4.050193870   2.028260107
Al      10.143071447   6.083128882   0.000803338
Al       8.114920543   4.057187473   4.057186461
Al       8.114398997   6.085416914   6.085417529
Al      10.145702726   4.055444085   6.082420062
Al      10.145702008   6.082420880   4.055444336
Al       8.114293596   4.055437357   8.114818391
Al       8.114293308   6.084681263  10.144063248
Al      10.145245414   4.050562050  10.148938697
Al      10.143222440   6.082704820   8.116795674
Al       8.116481063   8.116799201   0.001117304
Al       8.125171155  10.152404763   2.026865314
Al      10.143071517   8.116371074   2.027695766
Al      10.150247256  10.149306349   0.000239309
Al       8.114293641   8.114818079   4.055437036
Al       8.114293220  10.144063402   6.084682288
Al      10.143223078   8.116795201   6.082705118
Al      10.145245212  10.148937828   4.050562894
Al       8.114398885   8.114082588   8.114083265
Al       8.114920564  10.142313477  10.142312519
Al      10.145702770   8.117079131  10.144055881
Al      10.145701715  10.144055595   8.117079242
Si       0.000000236  -0.032348013  -0.032348369
Si      -0.000000212   2.060848702   2.060848429
