&CONTROL
  calculation = 'scf'
  outdir = './out/'
  prefix = 'aiida'
  pseudo_dir = '/users/aglensk/Dropbox/Albert/scripts/dotfiles/scripts/potentials/quantum_espresso/pseudo_SSSPefV1.1_alalloy'
  tprnfor = .true.             	! calculate the pressure of the cell
  tstress = .true.
  verbosity = 'high'
  wf_collect = .true.
  etot_conv_thr = 2.5d-4    ! EDIFFG positive atomic units
  forc_conv_thr = 2.0d-5
/
&SYSTEM
  degauss =   4.4100000000d-02  ! SIGMA in Rydberg  so, 0.60001101eV
  ecutrho = 400                 ! AUGMENTATION charges
  ecutwfc =  40                 ! ENCUT in Rydberg, so 544eV
  ibrav = 0                     ! no symmetry
   nat              = 22
   ntyp             = 2
  occupations = 'smearing'      ! using smearing 
  smearing = 'mp'               ! methfessel paxton
  nosym= .true. 		! no symmetry
/
&ELECTRONS
  conv_thr =   1.0000000000d-12   	! EDIFF
  mixing_beta =   4.0000000000d-01      ! MIXING
  mixing_mode = 'local-TF'                 ! MIXING
/
&IONS
  !press_conv_thr = 0.05                 ! just for volume relaxations
/
ATOMIC_SPECIES
Mg 24.305 Mg.pbe-n-kjpaw_psl.0.3.0.UPF
Si 28.085 Si.pbe-n-rrkjus_psl.1.0.0.UPF

K_POINTS automatic
6 20 13 0 0 0
CELL_PARAMETERS angstrom
14.23147176318435 0.00000000000000 -5.14788088442794
0.00000000000000 4.08062993603626 0.00000000000000
0.00711584595045 0.00000000000000 6.92506221990460

ATOMIC_POSITIONS angstrom
Mg 0.0272595056 0.0000000000 6.8379966935 
Mg 1.1330636597 2.0403147034 2.0947728593 
Mg 2.2539864067 2.0403147034 5.5703563898 
Mg 4.9090748512 0.0000000000 -1.3941184196 
Mg 6.0299499722 0.0000000000 2.0815323164 
Si 0.8457077341 0.0000000000 4.2507715220 
Si 2.7619578989 0.0000000000 0.7070585424 
Si 3.0018265200 0.0000000000 3.2124602169 
Si 4.1611336651 2.0403147034 0.9638163833 
Si 4.4010165739 2.0403147034 3.4692090618 
Si 6.3172381631 2.0403147034 -0.0745060345 
Mg 7.1429244775 2.0403147034 4.2633474184 
Mg 8.2486751847 0.0000000000 -0.4798901743 
Mg 9.3696582578 0.0000000000 2.9958203586 
Mg 12.0248747632 2.0403147034 -3.9674638020 
Mg 13.1458096813 2.0403147034 -0.4916871219 
Si 7.9613838187 2.0403147034 1.6761561142 
Si 9.8777117725 2.0403147034 -1.8672398882 
Si 10.1176243153 2.0403147034 0.6381252730 
Si 11.2768081621 0.0000000000 -1.6097306157 
Si 11.5167344635 0.0000000000 0.8956250204 
Si 13.4330338417 0.0000000000 -2.6477725696 

