Al 
 1.0000000000000000
     4.0459752098302530    0.0000000000000000    0.0000000000000000
     0.0000000000000000    4.0459752098302530    0.0000000000000000
     0.0000000000000000    0.0000000000000000    4.0459752098302530
   4
Cartesian
  0.0000000000000000  0.0000000000000000  0.0000000000000000
  0.0000000000000000  2.0229876049151261  2.0229876049151261
  2.0229876049151261  0.0000000000000000  2.0229876049151261
  2.0229876049151261  2.0229876049151261  0.0000000000000000
