&CONTROL
  calculation = 'scf'
  outdir = './out/'
  prefix = 'aiida'
  pseudo_dir = '/users/aglensk/Dropbox/Albert/scripts/dotfiles/scripts/potentials/quantum_espresso/pseudo_SSSPefV1.1_alalloy'
  tprnfor = .true.             	! calculate the pressure of the cell
  tstress = .true.
  verbosity = 'high'
  wf_collect = .true.
  etot_conv_thr = 2.5d-4    ! EDIFFG positive atomic units
  forc_conv_thr = 2.0d-5
/
&SYSTEM
  degauss =   4.4100000000d-02  ! SIGMA in Rydberg  so, 0.60001101eV
  ecutrho = 400                 ! AUGMENTATION charges
  ecutwfc =  40                 ! ENCUT in Rydberg, so 544eV
  ibrav = 0                     ! no symmetry
   nat              = 254
   ntyp             = 1
  occupations = 'smearing'      ! using smearing 
  smearing = 'mp'               ! methfessel paxton
  nosym= .true. 		! no symmetry
/
&ELECTRONS
  conv_thr =   1.0000000000d-12   	! EDIFF
  mixing_beta =   4.0000000000d-01      ! MIXING
  mixing_mode = 'local-TF'                 ! MIXING
/
&IONS
  !press_conv_thr = 0.05                 ! just for volume relaxations
/
ATOMIC_SPECIES
Al 26.9815385 Al.pbe-n-kjpaw_psl.1.0.0.UPF

K_POINTS automatic
5 5 5 0 0 0
CELL_PARAMETERS angstrom
16.22799863997135 0.00000000000000 0.00000000000000
0.00000000000000 16.22799863997135 0.00000000000000
0.00000000000000 0.00000000000000 16.22799863997135

ATOMIC_POSITIONS angstrom
Al 1.9943572502 0.0000000000 1.9943572502 
Al 1.9943572502 1.9943572502 0.0000000000 
Al 0.0000000000 1.9943572502 1.9943572502 
Al 0.0000000000 0.0000000000 4.0523279513 
Al 2.0268286222 2.0268286222 4.0552516554 
Al 2.0276747766 0.0000000000 6.0858369066 
Al 0.0000000000 2.0276747766 6.0858369066 
Al 0.0000000000 0.0000000000 8.1139995846 
Al 2.0307985097 2.0307985097 8.1139995846 
Al 2.0276747766 0.0000000000 10.1421617334 
Al 0.0000000000 2.0276747766 10.1421617334 
Al 0.0000000000 0.0000000000 12.1756706887 
Al 2.0268286222 2.0268286222 12.1727475138 
Al 1.9943572502 0.0000000000 14.2336419189 
Al 0.0000000000 1.9943572502 14.2336419189 
Al 0.0000000000 4.0523279513 0.0000000000 
Al 2.0276747766 6.0858369066 0.0000000000 
Al 2.0268286222 4.0552516554 2.0268286222 
Al 0.0000000000 6.0858369066 2.0276747766 
Al 0.0000000000 4.0441463424 4.0441463424 
Al 2.0285706736 6.0854289110 4.0569995277 
Al 2.0285706736 4.0569995277 6.0854289110 
Al 0.0000000000 6.0832016041 6.0832016041 
Al 0.0000000000 4.0569989985 8.1139995846 
Al 2.0281669114 6.0863274539 8.1139995846 
Al 2.0285706736 4.0569995277 10.1425702582 
Al 0.0000000000 6.0832016041 10.1447970359 
Al 0.0000000000 4.0441463424 12.1838522975 
Al 2.0285706736 6.0854289110 12.1709996415 
Al 2.0268286222 4.0552516554 14.2011700178 
Al 0.0000000000 6.0858369066 14.2003238634 
Al 0.0000000000 8.1139995846 0.0000000000 
Al 2.0276747766 10.1421617334 0.0000000000 
Al 2.0307985097 8.1139995846 2.0307985097 
Al 0.0000000000 10.1421617334 2.0276747766 
Al 0.0000000000 8.1139995846 4.0569989985 
Al 2.0285706736 10.1425702582 4.0569995277 
Al 2.0281669114 8.1139995846 6.0863274539 
Al 0.0000000000 10.1447970359 6.0832016041 
Al 0.0000000000 8.1139995846 8.1139995846 
Al 2.0281669114 10.1416711861 8.1139995846 
Al 2.0281669114 8.1139995846 10.1416711861 
Al 0.0000000000 10.1447970359 10.1447970359 
Al 0.0000000000 8.1139995846 12.1710001706 
Al 2.0285706736 10.1425702582 12.1709996415 
Al 2.0307985097 8.1139995846 14.1972006595 
Al 0.0000000000 10.1421617334 14.2003238634 
Al 0.0000000000 12.1756706887 0.0000000000 
Al 1.9943572502 14.2336419189 0.0000000000 
Al 2.0268286222 12.1727475138 2.0268286222 
Al 0.0000000000 14.2336419189 1.9943572502 
Al 0.0000000000 12.1838522975 4.0441463424 
Al 2.0268286222 14.2011700178 4.0552516554 
Al 2.0285706736 12.1709996415 6.0854289110 
Al 0.0000000000 14.2003238634 6.0858369066 
Al 0.0000000000 12.1710001706 8.1139995846 
Al 2.0307985097 14.1972006595 8.1139995846 
Al 2.0285706736 12.1709996415 10.1425702582 
Al 0.0000000000 14.2003238634 10.1421617334 
Al 0.0000000000 12.1838522975 12.1838522975 
Al 2.0268286222 14.2011700178 12.1727475138 
Al 2.0268286222 12.1727475138 14.2011700178 
Al 0.0000000000 14.2336419189 14.2336419189 
Al 4.0523279513 0.0000000000 0.0000000000 
Al 6.0858369066 2.0276747766 0.0000000000 
Al 6.0858369066 0.0000000000 2.0276747766 
Al 4.0552516554 2.0268286222 2.0268286222 
Al 4.0441463424 0.0000000000 4.0441463424 
Al 6.0854289110 2.0285706736 4.0569995277 
Al 6.0832016041 0.0000000000 6.0832016041 
Al 4.0569995277 2.0285706736 6.0854289110 
Al 4.0569989985 0.0000000000 8.1139995846 
Al 6.0863274539 2.0281669114 8.1139995846 
Al 6.0832016041 0.0000000000 10.1447970359 
Al 4.0569995277 2.0285706736 10.1425702582 
Al 4.0441463424 0.0000000000 12.1838522975 
Al 6.0854289110 2.0285706736 12.1709996415 
Al 6.0858369066 0.0000000000 14.2003238634 
Al 4.0552516554 2.0268286222 14.2011700178 
Al 4.0441463424 4.0441463424 0.0000000000 
Al 6.0832016041 6.0832016041 0.0000000000 
Al 6.0854289110 4.0569995277 2.0285706736 
Al 4.0569995277 6.0854289110 2.0285706736 
Al 4.0570000569 4.0570000569 4.0570000569 
Al 6.0871751958 6.0871751958 4.0587484584 
Al 6.0871751958 4.0587484584 6.0871751958 
Al 4.0587484584 6.0871751958 6.0871751958 
Al 4.0698516546 4.0698516546 8.1139995846 
Al 6.1196444511 6.1196444511 8.1139995846 
Al 6.0871751958 4.0587484584 10.1408239734 
Al 4.0587484584 6.0871751958 10.1408239734 
Al 4.0570000569 4.0570000569 12.1709985831 
Al 6.0871751958 6.0871751958 12.1692507108 
Al 6.0854289110 4.0569995277 14.1994279664 
Al 4.0569995277 6.0854289110 14.1994279664 
Al 4.0569989985 8.1139995846 0.0000000000 
Al 6.0832016041 10.1447970359 0.0000000000 
Al 6.0863274539 8.1139995846 2.0281669114 
Al 4.0569995277 10.1425702582 2.0285706736 
Al 4.0698516546 8.1139995846 4.0698516546 
Al 6.0871751958 10.1408239734 4.0587484584 
Al 6.1196444511 8.1139995846 6.1196444511 
Al 4.0587484584 10.1408239734 6.0871751958 
Al 4.0616742792 8.1139995846 8.1139995846 
Al 6.1196444511 10.1083541889 8.1139995846 
Al 6.1196444511 8.1139995846 10.1083541889 
Al 4.0587484584 10.1408239734 10.1408239734 
Al 4.0698516546 8.1139995846 12.1581475145 
Al 6.0871751958 10.1408239734 12.1692507108 
Al 6.0863274539 8.1139995846 14.1998322578 
Al 4.0569995277 10.1425702582 14.1994279664 
Al 4.0441463424 12.1838522975 0.0000000000 
Al 6.0858369066 14.2003238634 0.0000000000 
Al 6.0854289110 12.1709996415 2.0285706736 
Al 4.0552516554 14.2011700178 2.0268286222 
Al 4.0570000569 12.1709985831 4.0570000569 
Al 6.0854289110 14.1994279664 4.0569995277 
Al 6.0871751958 12.1692507108 6.0871751958 
Al 4.0569995277 14.1994279664 6.0854289110 
Al 4.0698516546 12.1581475145 8.1139995846 
Al 6.0863274539 14.1998322578 8.1139995846 
Al 6.0871751958 12.1692507108 10.1408239734 
Al 4.0569995277 14.1994279664 10.1425702582 
Al 4.0570000569 12.1709985831 12.1709985831 
Al 6.0854289110 14.1994279664 12.1709996415 
Al 6.0854289110 12.1709996415 14.1994279664 
Al 4.0552516554 14.2011700178 14.2011700178 
Al 8.1139995846 0.0000000000 0.0000000000 
Al 10.1421617334 2.0276747766 0.0000000000 
Al 10.1421617334 0.0000000000 2.0276747766 
Al 8.1139995846 2.0307985097 2.0307985097 
Al 8.1139995846 0.0000000000 4.0569989985 
Al 10.1425702582 2.0285706736 4.0569995277 
Al 10.1447970359 0.0000000000 6.0832016041 
Al 8.1139995846 2.0281669114 6.0863274539 
Al 8.1139995846 0.0000000000 8.1139995846 
Al 10.1416711861 2.0281669114 8.1139995846 
Al 10.1447970359 0.0000000000 10.1447970359 
Al 8.1139995846 2.0281669114 10.1416711861 
Al 8.1139995846 0.0000000000 12.1710001706 
Al 10.1425702582 2.0285706736 12.1709996415 
Al 10.1421617334 0.0000000000 14.2003238634 
Al 8.1139995846 2.0307985097 14.1972006595 
Al 8.1139995846 4.0569989985 0.0000000000 
Al 10.1447970359 6.0832016041 0.0000000000 
Al 10.1425702582 4.0569995277 2.0285706736 
Al 8.1139995846 6.0863274539 2.0281669114 
Al 8.1139995846 4.0698516546 4.0698516546 
Al 10.1408239734 6.0871751958 4.0587484584 
Al 10.1408239734 4.0587484584 6.0871751958 
Al 8.1139995846 6.1196444511 6.1196444511 
Al 8.1139995846 4.0616742792 8.1139995846 
Al 10.1083541889 6.1196444511 8.1139995846 
Al 10.1408239734 4.0587484584 10.1408239734 
Al 8.1139995846 6.1196444511 10.1083541889 
Al 8.1139995846 4.0698516546 12.1581475145 
Al 10.1408239734 6.0871751958 12.1692507108 
Al 10.1425702582 4.0569995277 14.1994279664 
Al 8.1139995846 6.0863274539 14.1998322578 
Al 8.1139995846 8.1139995846 0.0000000000 
Al 10.1447970359 10.1447970359 0.0000000000 
Al 10.1416711861 8.1139995846 2.0281669114 
Al 8.1139995846 10.1416711861 2.0281669114 
Al 8.1139995846 8.1139995846 4.0616742792 
Al 10.1408239734 10.1408239734 4.0587484584 
Al 10.1083541889 8.1139995846 6.1196444511 
Al 8.1139995846 10.1083541889 6.1196444511 
Al 10.1083541889 10.1083541889 8.1139995846 
Al 10.1083541889 8.1139995846 10.1083541889 
Al 8.1139995846 10.1083541889 10.1083541889 
Al 8.1139995846 8.1139995846 12.1663248900 
Al 10.1408239734 10.1408239734 12.1692507108 
Al 10.1416711861 8.1139995846 14.1998322578 
Al 8.1139995846 10.1416711861 14.1998322578 
Al 8.1139995846 12.1710001706 0.0000000000 
Al 10.1421617334 14.2003238634 0.0000000000 
Al 10.1425702582 12.1709996415 2.0285706736 
Al 8.1139995846 14.1972006595 2.0307985097 
Al 8.1139995846 12.1581475145 4.0698516546 
Al 10.1425702582 14.1994279664 4.0569995277 
Al 10.1408239734 12.1692507108 6.0871751958 
Al 8.1139995846 14.1998322578 6.0863274539 
Al 8.1139995846 12.1663248900 8.1139995846 
Al 10.1416711861 14.1998322578 8.1139995846 
Al 10.1408239734 12.1692507108 10.1408239734 
Al 8.1139995846 14.1998322578 10.1416711861 
Al 8.1139995846 12.1581475145 12.1581475145 
Al 10.1425702582 14.1994279664 12.1709996415 
Al 10.1425702582 12.1709996415 14.1994279664 
Al 8.1139995846 14.1972006595 14.1972006595 
Al 12.1756706887 0.0000000000 0.0000000000 
Al 14.2336419189 1.9943572502 0.0000000000 
Al 14.2336419189 0.0000000000 1.9943572502 
Al 12.1727475138 2.0268286222 2.0268286222 
Al 12.1838522975 0.0000000000 4.0441463424 
Al 14.2011700178 2.0268286222 4.0552516554 
Al 14.2003238634 0.0000000000 6.0858369066 
Al 12.1709996415 2.0285706736 6.0854289110 
Al 12.1710001706 0.0000000000 8.1139995846 
Al 14.1972006595 2.0307985097 8.1139995846 
Al 14.2003238634 0.0000000000 10.1421617334 
Al 12.1709996415 2.0285706736 10.1425702582 
Al 12.1838522975 0.0000000000 12.1838522975 
Al 14.2011700178 2.0268286222 12.1727475138 
Al 14.2336419189 0.0000000000 14.2336419189 
Al 12.1727475138 2.0268286222 14.2011700178 
Al 12.1838522975 4.0441463424 0.0000000000 
Al 14.2003238634 6.0858369066 0.0000000000 
Al 14.2011700178 4.0552516554 2.0268286222 
Al 12.1709996415 6.0854289110 2.0285706736 
Al 12.1709985831 4.0570000569 4.0570000569 
Al 14.1994279664 6.0854289110 4.0569995277 
Al 14.1994279664 4.0569995277 6.0854289110 
Al 12.1692507108 6.0871751958 6.0871751958 
Al 12.1581475145 4.0698516546 8.1139995846 
Al 14.1998322578 6.0863274539 8.1139995846 
Al 14.1994279664 4.0569995277 10.1425702582 
Al 12.1692507108 6.0871751958 10.1408239734 
Al 12.1709985831 4.0570000569 12.1709985831 
Al 14.1994279664 6.0854289110 12.1709996415 
Al 14.2011700178 4.0552516554 14.2011700178 
Al 12.1709996415 6.0854289110 14.1994279664 
Al 12.1710001706 8.1139995846 0.0000000000 
Al 14.2003238634 10.1421617334 0.0000000000 
Al 14.1972006595 8.1139995846 2.0307985097 
Al 12.1709996415 10.1425702582 2.0285706736 
Al 12.1581475145 8.1139995846 4.0698516546 
Al 14.1994279664 10.1425702582 4.0569995277 
Al 14.1998322578 8.1139995846 6.0863274539 
Al 12.1692507108 10.1408239734 6.0871751958 
Al 12.1663248900 8.1139995846 8.1139995846 
Al 14.1998322578 10.1416711861 8.1139995846 
Al 14.1998322578 8.1139995846 10.1416711861 
Al 12.1692507108 10.1408239734 10.1408239734 
Al 12.1581475145 8.1139995846 12.1581475145 
Al 14.1994279664 10.1425702582 12.1709996415 
Al 14.1972006595 8.1139995846 14.1972006595 
Al 12.1709996415 10.1425702582 14.1994279664 
Al 12.1838522975 12.1838522975 0.0000000000 
Al 14.2336419189 14.2336419189 0.0000000000 
Al 14.2011700178 12.1727475138 2.0268286222 
Al 12.1727475138 14.2011700178 2.0268286222 
Al 12.1709985831 12.1709985831 4.0570000569 
Al 14.2011700178 14.2011700178 4.0552516554 
Al 14.1994279664 12.1709996415 6.0854289110 
Al 12.1709996415 14.1994279664 6.0854289110 
Al 12.1581475145 12.1581475145 8.1139995846 
Al 14.1972006595 14.1972006595 8.1139995846 
Al 14.1994279664 12.1709996415 10.1425702582 
Al 12.1709996415 14.1994279664 10.1425702582 
Al 12.1709985831 12.1709985831 12.1709985831 
Al 14.2011700178 14.2011700178 12.1727475138 
Al 14.2011700178 12.1727475138 14.2011700178 
Al 12.1727475138 14.2011700178 14.2011700178 

