Si  V0K  5.45522
5.45522
1 0.0000 0.0000
0.0000 1 0.0000
0.0000 0.0000 1
8
Direct
0.0     0.0     0.0
0.0	0.5	0.5
0.5	0.0	0.5
0.5	0.5	0.0
0.25    0.25    0.25
0.75    0.25    0.75
0.75    0.75    0.25
0.25    0.75    0.75
