Si  V0K  5.45522
5.45522
0.0 0.5 0.5
0.5 0.0 0.5
0.5 0.5 0.0
2
Direct
-0.125 -0.125 -0.125
 0.125  0.125  0.125
