&CONTROL
  calculation = 'vc-relax'
  etot_conv_thr =   2.5000000000d-04
  forc_conv_thr =   2.0000000000d-05
  max_seconds =   2.7360000000d+04
  outdir = './out/'
  prefix = 'aiida'
  pseudo_dir = './pseudo/'
  restart_mode = 'from_scratch'
  tprnfor = .true.
  tstress = .true.
  verbosity = 'high'
  wf_collect = .true.
/
&SYSTEM
  degauss =   4.4100000000d-02
  ecutrho = 400
  ecutwfc = 40
  ibrav = 0
  nat = 2
  nbnd = 20
  nosym = .true.
  ntyp = 1
  occupations = 'smearing'
  smearing = 'mp'
/
&ELECTRONS
  conv_thr =   1.0000000000d-12
  mixing_beta =   4.0000000000d-01
  mixing_mode = 'local-TF'
/
&IONS
/
&CELL
/
ATOMIC_SPECIES
Mg     24.305 Mg.pbe-n-kjpaw_psl.0.3.0.UPF
ATOMIC_POSITIONS angstrom
Mg           0.0000000000       1.8487712120       3.8688776032 
Mg           1.6010828354       0.9243856060       1.2896258677 
K_POINTS automatic
29 29 16 0 0 0
CELL_PARAMETERS angstrom
      3.2021656707       0.0000000000       0.0000000000
     -1.6010828354       2.7731568180       0.0000000000
      0.0000000000       0.0000000000       5.1585034710
