Al 
 1.0000000000000000
     4.0394208368205575    0.0000000000000000    0.0000000000000000
     0.0000000000000000    4.0394208368205575    0.0000000000000000
     0.0000000000000000    0.0000000000000000    4.0394208368205575
   4
Cartesian
  0.0000000000000000  0.0000000000000000  0.0000000000000000
  0.0000000000000000  2.0197104184102783  2.0197104184102783
  2.0197104184102783  0.0000000000000000  2.0197104184102783
  2.0197104184102783  2.0197104184102783  0.0000000000000000
