Al 
 1.0000000000000000
    12.1999808326240515   -0.0000000000041315    0.0000000000015623
    -0.0000000000041315   12.1999808326228099    0.0000000000126145
     0.0000000000015623    0.0000000000126145   12.1999808326227672
 109
Direct
  0.9602212084411711  0.9999999999999999  0.9999999999999997
  0.0015403380549938  0.1651263286116730  0.1651263286116731
  0.1666666666666667  0.9999999999999999  0.2064454582254957
  0.1666666666666666  0.2064454582254951  0.9999999999999999
  0.9927806307694084  0.9999999999999999  0.3395129316222163
  0.9985371634293118  0.1681295032373551  0.4999999999999998
  0.1666666666666665  0.0000000000000000  0.5000000000000002
  0.1666666666666667  0.1738860358972585  0.3395129316222162
  0.9927806307694083  0.9999999999999999  0.6604870683777841
  0.0015403380549936  0.1651263286116730  0.8348736713883270
  0.1666666666666668  0.9999999999999998  0.7935545417745048
  0.1666666666666665  0.1738860358972583  0.6604870683777836
  0.9927806307694088  0.3395129316222161  0.0000000000000000
  0.9985371634293119  0.5000000000000000  0.1681295032373552
  0.1666666666666669  0.3395129316222163  0.1738860358972583
  0.1666666666666665  0.5000000000000004  0.0000000000000001
  0.9983566556301884  0.3336374512332337  0.3336374512332339
  0.9983894293690906  0.5000000000000001  0.4999999999999998
  0.1666666666666667  0.3368635146218504  0.4999999999999998
  0.1666666666666667  0.5000000000000002  0.3368635146218504
  0.9983566556301879  0.3336374512332337  0.6663625487667661
  0.9985371634293118  0.5000000000000004  0.8318704967626452
  0.1666666666666664  0.3395129316222164  0.8261139641027414
  0.1666666666666666  0.5000000000000002  0.6631364853781497
  0.9927806307694086  0.6604870683777843  0.0000000000000001
  0.0015403380549938  0.8348736713883271  0.1651263286116731
  0.1666666666666667  0.6604870683777841  0.1738860358972584
  0.1666666666666668  0.7935545417745049  0.0000000000000000
  0.9983566556301882  0.6663625487667665  0.3336374512332338
  0.9985371634293119  0.8318704967626452  0.5000000000000002
  0.1666666666666665  0.6631364853781498  0.5000000000000001
  0.1666666666666665  0.8261139641027416  0.3395129316222164
  0.9983566556301883  0.6663625487667667  0.6663625487667664
  0.0015403380549938  0.8348736713883276  0.8348736713883270
  0.1666666666666667  0.6604870683777843  0.8261139641027416
  0.1666666666666666  0.8261139641027420  0.6604870683777841
  0.3731121248921611  0.9999999999999998  0.9999999999999999
  0.3317929952783397  0.1651263286116730  0.1651263286116733
  0.5061795982888827  0.0000000000000000  0.1738860358972582
  0.5061795982888826  0.1738860358972582  0.0000000000000001
  0.3405527025639254  0.0000000000000000  0.3395129316222164
  0.3347961699040218  0.1681295032373551  0.5000000000000002
  0.5035301812885169  0.0000000000000002  0.5000000000000003
  0.5003041178999005  0.1683100110364789  0.3336374512332340
  0.3405527025639252  0.9999999999999998  0.6604870683777836
  0.3317929952783397  0.1651263286116729  0.8348736713883268
  0.5061795982888826  0.9999999999999999  0.8261139641027416
  0.5003041178999006  0.1683100110364785  0.6663625487667661
  0.3405527025639249  0.3395129316222163  0.0000000000000002
  0.3347961699040219  0.5000000000000001  0.1681295032373553
  0.5003041178999004  0.3336374512332340  0.1683100110364792
  0.5035301812885171  0.4999999999999999  0.0000000000000003
  0.3349766777031453  0.3336374512332339  0.3336374512332340
  0.3349439039642431  0.5000000000000002  0.5000000000000001
  0.5005471858217050  0.3338805191550382  0.5000000000000002
  0.5005471858217048  0.4999999999999999  0.3338805191550382
  0.3349766777031456  0.3336374512332336  0.6663625487667661
  0.3347961699040219  0.5000000000000002  0.8318704967626449
  0.5003041178999006  0.3336374512332338  0.8316899889635213
  0.5005471858217050  0.4999999999999998  0.6661194808449616
  0.3405527025639251  0.6604870683777841  0.9999999999999999
  0.3317929952783400  0.8348736713883267  0.1651263286116731
  0.5003041178999003  0.6663625487667667  0.1683100110364789
  0.5061795982888825  0.8261139641027417  0.0000000000000000
  0.3349766777031454  0.6663625487667661  0.3336374512332337
  0.3347961699040218  0.8318704967626454  0.5000000000000002
  0.5005471858217050  0.6661194808449616  0.4999999999999999
  0.5003041178999007  0.8316899889635213  0.3336374512332338
  0.3349766777031454  0.6663625487667667  0.6663625487667664
  0.3317929952783396  0.8348736713883271  0.8348736713883268
  0.5003041178999005  0.6663625487667668  0.8316899889635213
  0.5003041178999005  0.8316899889635213  0.6663625487667666
  0.6666666666666670  0.9999999999999999  0.0000000000000000
  0.6666666666666667  0.1681295032373548  0.1681295032373553
  0.8271537350444510  0.9999999999999999  0.1738860358972586
  0.8271537350444511  0.1738860358972583  0.9999999999999998
  0.6666666666666670  0.0000000000000001  0.3368635146218507
  0.6666666666666667  0.1682772372975762  0.5000000000000001
  0.8298031520448164  0.0000000000000001  0.5000000000000004
  0.8330292154334333  0.1683100110364787  0.3336374512332340
  0.6666666666666667  0.0000000000000001  0.6631364853781497
  0.6666666666666667  0.1681295032373551  0.8318704967626449
  0.8271537350444506  0.0000000000000001  0.8261139641027413
  0.8330292154334328  0.1683100110364787  0.6663625487667664
  0.6666666666666666  0.3368635146218502  0.0000000000000002
  0.6666666666666667  0.5000000000000004  0.1682772372975766
  0.8330292154334333  0.3336374512332337  0.1683100110364789
  0.8298031520448169  0.5000000000000002  0.0000000000000000
  0.6666666666666667  0.3338805191550384  0.3338805191550384
  0.6666666666666670  0.4999999999999999  0.5000000000000002
  0.8327861475116286  0.3338805191550381  0.5000000000000001
  0.8327861475116284  0.5000000000000002  0.3338805191550384
  0.6666666666666670  0.3338805191550383  0.6661194808449615
  0.6666666666666665  0.4999999999999999  0.8317227627024236
  0.8330292154334334  0.3336374512332336  0.8316899889635208
  0.8327861475116284  0.5000000000000001  0.6661194808449618
  0.6666666666666666  0.6631364853781503  0.0000000000000002
  0.6666666666666670  0.8318704967626450  0.1681295032373552
  0.8330292154334333  0.6663625487667667  0.1683100110364790
  0.8271537350444510  0.8261139641027416  0.0000000000000001
  0.6666666666666667  0.6661194808449621  0.3338805191550384
  0.6666666666666667  0.8317227627024238  0.5000000000000002
  0.8327861475116286  0.6661194808449621  0.5000000000000002
  0.8330292154334333  0.8316899889635212  0.3336374512332340
  0.6666666666666667  0.6661194808449622  0.6661194808449616
  0.6666666666666667  0.8318704967626455  0.8318704967626449
  0.8330292154334333  0.6663625487667667  0.8316899889635211
  0.8330292154334332  0.8316899889635213  0.6663625487667661
  0.1666666666666662  0.0000000000000000  0.0000000000000001
