Al 
 1.0000000000000000
    12.1999808326240515   -0.0000000000041315    0.0000000000015623
    -0.0000000000041315   12.1999808326228099    0.0000000000126145
     0.0000000000015623    0.0000000000126145   12.1999808326227672
 109
Cartesian
 11.7146803380613918 -0.0000000000039681  0.0000000000014965
  0.0187920947462619  2.0145380440258629  2.0145380440258656
  2.0333301387709986  0.0000000000019145  2.5186306333333319
  2.0333301387698217  2.5186306333323851  0.0000000000028635
 12.1119046663877299  0.0000000000001796  4.1420512582201541
 12.1821342545004807  2.0511767168963089  6.0999904163150624
  2.0333301387714551  0.0000000000056192  6.0999904163116465
  2.0333301387704878  2.1214063050109102  4.1420512582210565
 12.1119046663882290  0.0000000000042293  8.0579295744057209
  0.0187920947473050  2.0145380440343112 10.1854427886010743
  2.0333301387719169  0.0000000000093192  9.6813501992899624
  2.0333301387709874  2.1214063050149568  8.0579295744066162
 12.1119046663858008  4.1420512582145133  0.0000000000058333
 12.1821342544985924  6.0999904163094012  2.0511767169019888
  2.0333301387695468  4.1420512582201230  2.1214063050118495
  2.0333301387686080  6.0999904163107219  0.0000000000065686
 12.1799320628100922  4.0703705100906635  4.0703705100963354
 12.1803319017960856  6.0999904163135890  6.0999904163192493
  2.0333301387700646  4.1097284216021475  6.0999904163158920
  2.0333301387691365  6.0999904163149683  4.1097284216030827
 12.1799320628106074  4.0703705100948602  8.1296103225379692
 12.1821342544996281  6.0999904163177785 10.1488041157365192
  2.0333301387705593  4.1420512582283511 10.0785745276200025
  2.0333301387696445  6.0999904163190841  8.0902524110328216
 12.1119046663844721  8.0579295744000987  0.0000000000098841
  0.0187920947434941 10.1854427886011027  2.0145380440343135
  2.0333301387682186  8.0579295744057031  2.1214063050158996
  2.0333301387673983  9.6813501992890476  0.0000000000102703
 12.1799320628087138  8.1296103225323169  4.0703705101005312
 12.1821342544977398 10.1488041157308704  6.0999904163234397
  2.0333301387687155  8.0902524110319032  6.0999904163200105
  2.0333301387677900 10.0785745276190895  4.1420512582292854
 12.1799320628092360  8.1296103225365179  8.1296103225421685
  0.0187920947445407 10.1854427886095564 10.1854427886095227
  2.0333301387692373  8.0579295744139330 10.0785745276240526
  2.0333301387682936 10.0785745276231431  8.0579295744148514
  4.5519607721039970 -0.0000000000015439  0.0000000000005821
  4.0478681827942422  2.0145380440244987  2.0145380440263838
  6.1753813969899829  0.0000000000001024  2.1214063050080951
  6.1753813969889917  2.1214063050052201  0.0000000000029857
  4.1547364437787397  0.0000000000028754  4.1420512582191362
  4.0845068556650990  2.0511767168990511  6.0999904163140304
  6.1430585603684014  0.0000000000042294  6.0999904163121750
  6.1037006488614951  2.0533789085857177  4.0703705100934737
  4.1547364437792389  0.0000000000069222  8.0579295744046959
  4.0478681827952894  2.0145380440329457 10.1854427886015859
  6.1753813969910007  0.0000000000083279 10.0785745276162508
  6.1037006488620165  2.0533789085899103  8.1296103225351057
  4.1547364437768008  4.1420512582172107  0.0000000000048172
  4.0845068556632098  6.0999904163121448  2.0511767169009527
  6.1037006488605527  4.0703705100906378  2.0533789085885634
  6.1430585603655565  6.0999904163093239  0.0000000000070975
  4.0867090473536001  4.0703705100934062  4.0703705100952998
  4.0863092083667532  6.0999904163163308  6.0999904163182164
  6.1066660728481121  4.0733359340818591  6.0999904163163796
  6.1066660728471627  6.0999904163135481  4.0733359340846951
  4.0867090473541232  4.0703705100976002  8.1296103225369336
  4.0845068556642463  6.0999904163205185 10.1488041157354782
  6.1037006488615919  4.0703705100990044 10.1466019240441909
  6.1066660728476858  6.0999904163177385  8.1266448985522501
  4.1547364437754775  8.0579295744027917  0.0000000000088624
  4.0478681827914782 10.1854427885997332  2.0145380440348304
  6.1037006488591770  8.1296103225322920  2.0533789085927561
  6.1753813969862952 10.0785745276134069  0.0000000000112113
  4.0867090473522261  8.1296103225350542  4.0703705100994929
  4.0845068556623563 10.1488041157336131  6.0999904163224032
  6.1066660728467390  8.1266448985494293  6.0999904163205674
  6.1037006488587568 10.1466019240413772  4.0703705101018386
  4.0867090473527465  8.1296103225392589  8.1296103225411329
  4.0478681827925209 10.1854427886081869 10.1854427886100360
  6.1037006488602152  8.1296103225406622 10.1466019240483885
  6.1037006488592738 10.1466019240455747  8.1296103225434795
  8.1333205550827046 -0.0000000000027562  0.0000000000010412
  8.1333205550822711  2.0511767168934907  2.0511767168972850
 10.0912597131759671 -0.0000000000012254  2.1214063050086018
 10.0912597131749795  2.1214063050038967  0.0000000000034837
  8.1333205550832304  0.0000000000014965  4.1097284215975591
  8.1333205550827898  2.0529790696007031  6.0999904163145500
 10.1235825497985630  0.0000000000028801  6.0999904163126857
 10.1629404613035650  2.0533789085843406  4.0703705100939924
  8.1333205550837384  0.0000000000056119  8.0902524110272953
  8.1333205550833085  2.0511767169018671 10.1488041157318101
 10.0912597131769814  0.0000000000070044 10.0785745276167482
 10.1629404613040784  2.0533789085885377  8.1296103225356280
  8.1333205550813101  4.1097284215937719  0.0000000000052928
  8.1333205550808998  6.0999904163107788  2.0529790696044965
 10.1629404613026235  4.0703705100892602  2.0533789085890795
 10.1235825497957226  6.0999904163079801  0.0000000000076036
  8.1333205550818448  4.0733359340790791  4.0733359340828610
  8.1333205550814203  6.0999904163149568  6.0999904163187351
 10.1599750373160962  4.0733359340804842  6.0999904163168983
 10.1599750373151494  6.0999904163121785  4.0733359340852147
  8.1333205550823653  4.0733359340832695  8.1266448985504116
  8.1333205550819336  6.0999904163191419 10.1470017630329714
 10.1629404613036609  4.0703705100976268 10.1466019240447043
 10.1599750373156681  6.0999904163163690  8.1266448985527706
  8.1333205550799619  8.0902524110235348  0.0000000000094088
  8.1333205550795302 10.1488041157280513  2.0511767169056565
 10.1629404613012486  8.1296103225309189  2.0533789085932779
 10.0912597131722830 10.0785745276120782  0.0000000000117147
  8.1333205550804735  8.1266448985466511  4.0733359340870505
  8.1333205550800489 10.1470017630292144  6.0999904163229193
 10.1599750373147248  8.1266448985480615  6.0999904163210905
 10.1629404613008241 10.1466019240400023  4.0703705101023608
  8.1333205550809922  8.1266448985508433  8.1266448985546056
  8.1333205550805658 10.1488041157364286 10.1488041157401838
 10.1629404613022842  8.1296103225392873 10.1466019240489054
 10.1629404613013428 10.1466019240442016  8.1296103225439946
  2.0333301387706699 -0.0000000000006881  0.0000000000002620
