&CONTROL
  calculation = 'vc-relax'
  etot_conv_thr =   2.5000000000d-04
  forc_conv_thr =   2.0000000000d-05
  max_seconds =   2.7360000000d+04
  outdir = './out/'
  prefix = 'aiida'
  pseudo_dir = './pseudo/'
  restart_mode = 'from_scratch'
  tprnfor = .true.
  tstress = .true.
  verbosity = 'high'
  wf_collect = .true.
/
&SYSTEM
  degauss =   4.4100000000d-02
  ecutrho = 400
  ecutwfc = 40
  ibrav = 0
  nat = 8
  nbnd =   2.4000000000d+01
  nosym = .true.
  ntyp = 1
  occupations = 'smearing'
  smearing = 'mp'
/
&ELECTRONS
  conv_thr =   1.0000000000d-12
  mixing_beta =   4.0000000000d-01
  mixing_mode = 'local-TF'
/
&IONS
/
&CELL
/
ATOMIC_SPECIES
Si     28.0855 Si.pbe-n-rrkjus_psl.1.0.0.UPF
ATOMIC_POSITIONS angstrom
Si           0.0000000000       0.0000000000       0.0000000000 
Si           0.0000000000       2.7352193625       2.7352193625 
Si           2.7352193625       2.7352193625       0.0000000000 
Si           2.7352193625       0.0000000000       2.7352193625 
Si           4.1028290437       1.3676096812       4.1028290437 
Si           1.3676096812       1.3676096812       1.3676096812 
Si           1.3676096812       4.1028290437       4.1028290437 
Si           4.1028290437       4.1028290437       1.3676096812 
K_POINTS automatic
15 15 15 0 0 0
CELL_PARAMETERS angstrom
      5.4704387250       0.0000000000       0.0000000000
      0.0000000000       5.4704387250       0.0000000000
      0.0000000000       0.0000000000       5.4704387250
