Al 
 1.0000000000000000
     4.0434404105511605    0.0000000000000000    0.0000000000000000
     0.0000000000000000    4.0434404105511605    0.0000000000000000
     0.0000000000000000    0.0000000000000000    4.0434404105511605
   4
Cartesian
  0.0000000000000000  0.0000000000000000  0.0000000000000000
  0.0000000000000000  2.0217202052755798  2.0217202052755798
  2.0217202052755798  0.0000000000000000  2.0217202052755798
  2.0217202052755798  2.0217202052755798  0.0000000000000000
