&CONTROL
  calculation = 'scf'
  outdir = './out/'
  prefix = 'aiida'
  pseudo_dir = '/users/aglensk/Dropbox/Albert/scripts/dotfiles/scripts/potentials/quantum_espresso/pseudo_SSSPefV1.1_alalloy'
  tprnfor = .true.             	! calculate the pressure of the cell
  tstress = .true.
  verbosity = 'high'
  wf_collect = .true.
  etot_conv_thr = 2.5d-4    ! EDIFFG positive atomic units
  forc_conv_thr = 2.0d-5
/
&SYSTEM
  degauss =   4.4100000000d-02  ! SIGMA in Rydberg  so, 0.60001101eV
  ecutrho = 400                 ! AUGMENTATION charges
  ecutwfc =  40                 ! ENCUT in Rydberg, so 544eV
  ibrav = 0                     ! no symmetry
   nat              = 264
   ntyp             = 3
  occupations = 'smearing'      ! using smearing 
  smearing = 'mp'               ! methfessel paxton
  nosym= .true. 		! no symmetry
/
&ELECTRONS
  conv_thr =   1.0000000000d-12   	! EDIFF
  mixing_beta =   4.0000000000d-01      ! MIXING
  mixing_mode = 'local-TF'                 ! MIXING
/
&IONS
  !press_conv_thr = 0.05                 ! just for volume relaxations
/
ATOMIC_SPECIES
Mg 24.305 Mg.pbe-n-kjpaw_psl.0.3.0.UPF
Si 28.085 Si.pbe-n-rrkjus_psl.1.0.0.UPF
Al 26.9815385 Al.pbe-n-kjpaw_psl.1.0.0.UPF

K_POINTS automatic
6 2 13 0 0 0
CELL_PARAMETERS angstrom
8.11399588033381 0.00000000000000 12.17099329132350
0.00000000000000 50.27254727609033 0.00000000000000
-6.08549717483896 0.00000000000000 2.02849870549485

ATOMIC_POSITIONS angstrom
Mg -5.8140895920 0.2080915296 2.0434855333 
Mg -1.4633755454 2.0078380397 1.7791795086 
Mg -4.1443148258 2.0648859888 3.7296071127 
Mg 2.4844473153 0.0038418265 4.3846194889 
Mg -0.2467955508 50.1672584740 6.3424227649 
Si -3.2611339367 50.1719866724 2.0461081355 
Si 0.2614918602 0.0017478723 2.7939911122 
Si -1.9032292303 49.8378197308 4.0159322011 
Si 0.2051768215 2.0360606478 4.2013744169 
Si -1.9465889526 2.0754827625 5.3031166067 
Si 1.6497078372 2.0662893668 6.0737399156 
Mg -1.9122659895 2.0751086342 8.1394948134 
Mg 2.4783289684 50.1864104556 7.8568707904 
Mg -0.1964729147 50.1654910222 9.8155080498 
Mg 6.5456384557 1.8906755594 10.4753692767 
Mg 3.9021294669 1.9198813788 12.3382736161 
Si 0.6086474565 2.0166583654 8.1683746597 
Si 4.2622218584 2.0257586259 8.9445104076 
Si 2.0765400586 1.9736796507 10.0210346574 
Si 4.3142473867 49.9988716397 10.1877387082 
Si 2.1525986990 50.1084367228 11.3924667208 
Si 5.8774421585 49.7619013223 12.0749222271 
Mg -5.9289575599 3.9880847796 1.9966787506 
Mg -1.4577578001 6.2669091770 1.6477535858 
Mg -4.2894014583 6.3008622452 3.6787653539 
Mg 2.4868624801 4.1938251748 4.4343277502 
Mg -0.3276522410 4.1860642618 6.4382387657 
Si -3.4088823306 4.1965446165 2.0499478454 
Si 0.2194143343 4.1705429651 2.8383382791 
Si -1.9719513580 4.2099899510 3.9289042462 
Si 0.1669263052 6.3007950397 4.1992614123 
Si -2.0194645922 6.3425619385 5.2855320480 
Si 1.6255217928 6.3303760457 6.0575931313 
Mg -1.9302463728 6.3172349881 8.1307697396 
Mg 2.5708984670 4.1778852989 7.8110757946 
Mg -0.2229428880 4.1556958401 9.8028691813 
Mg 6.5462417177 6.2361750938 10.5136250848 
Mg 3.7183991394 6.2730571578 12.5243037477 
Si 0.6022428247 6.2994826802 8.1611291653 
Si 4.2535565816 6.3201115954 8.9376041158 
Si 2.0625851263 6.2816176576 10.0159804859 
Si 4.2670304917 4.1820255814 10.2822942088 
Si 2.0773359411 4.1225561173 11.3527810759 
Si 5.7399957865 4.0675105746 12.1273245296 
Mg -5.9911120692 8.4430430325 2.0222348349 
Mg -1.5037126074 10.5765342008 1.6847525980 
Mg -4.3118454514 10.5958486398 3.6915613880 
Mg 2.4446785896 8.4673767173 4.4259196535 
Mg -0.3466528779 8.4533418793 6.4278494296 
Si -3.4620948033 8.4572757827 2.0567535935 
Si 0.1836758223 8.4398875488 2.8323977357 
Si -2.0007163728 8.4430493826 3.9032772523 
Si 0.1553352076 10.5911627756 4.1922847399 
Si -2.0332671213 10.5803384557 5.2693582757 
Si 1.6107445192 10.6202833975 6.0505127403 
Mg -1.9459449439 10.5920470307 8.1157866160 
Mg 2.5505632452 8.4570180734 7.7848381302 
Mg -0.2413990016 8.4432298320 9.7843844921 
Mg 6.5114112737 10.5642414142 10.5065510438 
Mg 3.7026026705 10.5833976292 12.5073145134 
Si 0.5848371279 10.5829033777 8.1519098399 
Si 4.2293895876 10.5791419861 8.9330521334 
Si 2.0395886723 10.5913178245 10.0087312873 
Si 4.2105387078 8.4441797051 10.2923850891 
Si 2.0262449398 8.4301829679 11.3633535074 
Si 5.6810126363 8.3871259350 12.1321019414 
Mg -6.0023068131 12.7349093982 2.0283949868 
Mg -1.5090017336 14.8665574423 1.6980725176 
Mg -4.3008909539 14.8805954554 3.6965689919 
Mg 2.4506434751 12.7577312238 4.4225816036 
Mg -0.3557330297 12.7385617793 6.4221279656 
Si -3.4718157887 12.7385850631 2.0647452277 
Si 0.1717820353 12.7442710723 2.8457875067 
Si -2.0175537332 12.7306225336 3.9216867982 
Si 0.1501492709 14.8791878440 4.2058750691 
Si -2.0343572264 14.8898661109 5.2776436033 
Si 1.6201696945 14.9347064710 6.0465820120 
Mg -1.9380104608 14.8811606166 8.1084220568 
Mg 2.5503595119 12.7457114926 7.7739116791 
Mg -0.2550369566 12.7283941684 9.7776030862 
Mg 6.4994222348 14.8577540502 10.5134769152 
Mg 3.7087294842 14.8704992834 12.5126163399 
Si 0.5911766709 14.8674327014 8.1425185320 
Si 4.2380733856 14.8842446614 8.9186516340 
Si 2.0531588927 14.8828179996 9.9890591244 
Si 4.2124728505 12.7326408155 10.2778057277 
Si 2.0237329355 12.7445811701 11.3540161755 
Si 5.6686896866 12.6994428832 12.1347589402 
Mg -5.9929689520 17.0107221150 2.0464166458 
Mg -1.4969846484 19.1507888393 1.7283917258 
Mg -4.2882631981 19.1698720279 3.7178646704 
Mg 2.4816072212 17.0901394432 4.4310055756 
Mg -0.3440054043 17.0525636278 6.4363787078 
Si -3.4607374638 17.0254866883 2.0756272279 
Si 0.1887442816 17.0050530395 2.8544803007 
Si -2.0028029185 17.0418001634 3.9330016654 
Si 0.1994326029 19.1475322827 4.1953174545 
Si -1.9898978739 19.2068996156 5.2661440533 
Si 1.6710051032 19.2660605694 6.0413484493 
Mg -1.8841026492 19.3317060608 8.0837973245 
Mg 2.5896334570 17.0586602785 7.7352256500 
Mg -0.2376984653 17.0254073117 9.7625289442 
Mg 6.5321571371 19.1324602574 10.5183061864 
Mg 3.7202872437 19.1412610036 12.5221732803 
Si 0.6370018298 19.1353702029 8.1356016567 
Si 4.2650550732 19.1586196037 8.9243625145 
Si 2.0743032265 19.1164801640 10.0136446977 
Si 4.2204089211 17.0248183375 10.2829297507 
Si 2.0335491728 16.9836748094 11.3701047502 
Si 5.6770946082 16.9952547943 12.1429193819 
Mg -5.9797903228 21.2472651201 2.0538240684 
Mg -1.5847820269 23.4167080589 1.7607958923 
Mg -4.2581461356 23.4345720232 3.7307411395 
Mg 2.4726551303 21.4412064510 4.3915797567 
Mg -0.1682428981 21.4101982540 6.2594006815 
Si -3.4581677793 21.3115030000 2.0849365134 
Si 0.1931756115 21.3065880021 2.8582580968 
Si -1.9893305959 21.3618610909 3.9396724733 
Si 0.2378767980 23.6169238440 4.0968560968 
Si -1.9171148403 23.4977531362 5.3163783168 
Si 1.8068030882 23.8465888701 5.9827145561 
Mg -1.7699575374 23.1271671606 8.1312036649 
Mg 2.5809173791 21.3283673485 7.8635632946 
Mg -0.0982174070 21.2659090916 9.8140591626 
Mg 6.5388041320 23.3273665413 10.4687471531 
Mg 3.7947482982 23.4319981052 12.4333276017 
Si 0.7879342830 23.4391859193 8.1300347124 
Si 4.3161783544 23.3325434819 8.8792199942 
Si 2.1545878762 23.7811307075 10.0942870711 
Si 4.2484177417 21.2959563028 10.2855761659 
Si 2.0977616522 21.2493659536 11.3881174133 
Si 5.6951898229 21.2631303820 12.1575733573 
Al -4.0928496962 29.7759443713 2.0019625851 
Al 8.0720416527 27.7541678040 12.1354886756 
Al -4.1017478110 27.7542371262 4.0217282791 
Al -0.0339483056 29.7560330204 2.0119719720 
Al 1.9696637249 29.7518265908 4.0376618049 
Al -0.0684421929 27.6854837771 4.0490623987 
Al 1.8766285503 27.7559918778 6.0513525445 
Al 1.9805055076 29.7289518475 8.0980253121 
Al 1.9665463419 27.7274200127 10.1391200228 
Al 4.0237195729 27.7499841289 12.1328290309 
Al 1.9878769461 29.7631366953 12.1494097404 
Al 6.0480319575 29.7672187683 12.1345477985 
Al -2.0770094387 27.7639591699 1.9836498785 
Al -2.0638900773 29.7615047128 4.0275428783 
Al -0.0752177779 29.7506444089 6.0774753775 
Al -2.1067576648 27.7378342202 6.0345162424 
Al -0.0692327836 27.6858557887 8.1295372858 
Al 3.9934680993 29.7309865339 6.0739018438 
Al -0.0408641226 29.7421431770 10.1188303101 
Al 4.0285493733 27.7128136633 8.1353254262 
Al 4.0150733465 29.7494273013 10.1218995380 
Al 6.0480414827 27.7037509744 10.0965567122 
Al -4.0839171849 33.7941425093 2.0138606055 
Al 8.0807640807 31.7809195623 12.1542892835 
Al -4.0907398666 31.7790388665 4.0415644868 
Al -0.0272870229 33.7960258509 2.0152057740 
Al 1.9979752348 33.7919834662 4.0469097058 
Al -0.0381277472 31.7757352132 4.0454523518 
Al 1.9856972652 31.7664661451 6.0758698538 
Al 1.9981826723 33.7874156086 8.0987243552 
Al 1.9933793307 31.7725019404 10.1226821911 
Al 4.0242730923 31.7788139662 12.1475449199 
Al 2.0001284569 33.7938366448 12.1549274712 
Al 6.0579206920 33.7961512659 12.1534637670 
Al -2.0590512809 31.7803051876 2.0070257526 
Al -2.0572499617 33.7936784208 4.0446305396 
Al -0.0326634633 33.7882585879 6.0745617278 
Al -2.0761251836 31.7711816433 6.0777373202 
Al -0.0405910671 31.7635567288 8.1000224269 
Al 4.0258267566 33.7897212337 6.0733213364 
Al -0.0300641449 33.7899752387 10.1251629738 
Al 4.0184854811 31.7665767432 8.0954101183 
Al 4.0275783331 33.7944795951 10.1249079104 
Al 6.0507529867 31.7772327847 10.1174941377 
Al -4.0850199902 37.8273888595 2.0148422292 
Al 8.0883784116 35.8106617011 12.1574722844 
Al -4.0845056299 35.8101621578 4.0438161359 
Al -0.0278484799 37.8261495265 2.0142686011 
Al 2.0023684640 37.8238370221 4.0400949617 
Al -0.0269912128 35.8097912045 4.0451703003 
Al 2.0021430345 35.8073384682 6.0734451639 
Al 2.0024573658 37.8228273520 8.1013760622 
Al 2.0034088264 35.8087376127 10.1289000233 
Al 4.0324573470 35.8098843397 12.1572383881 
Al 2.0021313926 37.8259341514 12.1590883916 
Al 6.0588478105 37.8275163912 12.1595498341 
Al -2.0551898748 35.8106283629 2.0157248968 
Al -2.0565726149 37.8255330350 4.0408305180 
Al -0.0264376934 37.8236592185 6.0694583428 
Al -2.0557063518 35.8084105812 6.0724259686 
Al -0.0263948301 35.8071617230 8.1005346705 
Al 4.0310259227 37.8229469460 6.0706008364 
Al -0.0261688714 37.8233374788 10.1295704908 
Al 4.0315969049 35.8087714801 8.1010141050 
Al 4.0312502938 37.8243519115 10.1322920492 
Al 6.0619159800 35.8104674930 10.1277046120 
Al -4.1028971839 41.8668244664 2.0141421278 
Al 8.0800946715 39.8443668479 12.1585687396 
Al -4.0896164234 39.8441662898 4.0380010075 
Al -0.0437603094 41.8634197402 2.0082656148 
Al 1.9900703856 41.8498532241 4.0308618777 
Al -0.0323194981 39.8393333143 4.0363637332 
Al 1.9988176849 39.8345384396 6.0659488395 
Al 1.9923791858 41.8444423871 8.0908025724 
Al 1.9974084860 39.8392608170 10.1309452932 
Al 4.0217616172 39.8460559816 12.1599943430 
Al 1.9758048264 41.8572834013 12.1635255425 
Al 6.0378024329 41.8633356011 12.1609098196 
Al -2.0624290191 39.8476398090 2.0120053102 
Al -2.0677128535 41.8577570149 4.0353905763 
Al -0.0367534740 41.8463479542 6.0602945810 
Al -2.0590200595 39.8384120168 6.0662457079 
Al -0.0289946777 39.8365995849 8.0982401581 
Al 4.0190522299 41.8433692157 6.0678718695 
Al -0.0388140900 41.8477338694 10.1253217270 
Al 4.0274322802 39.8349236806 8.1009913504 
Al 4.0143261483 41.8513465622 10.1298065039 
Al 6.0526675499 39.8411335752 10.1322587110 
Al -4.1328840689 45.9285775930 2.0392880996 
Al 8.0420627054 43.8937859121 12.1582464707 
Al -4.1043249040 43.8800939810 4.0328859806 
Al -0.0346690450 45.9050149193 2.0464949641 
Al 1.9858078632 45.9142067275 4.0083887800 
Al -0.0471888486 43.8729326258 4.0356339978 
Al 1.9845627092 43.8513580709 6.0478605041 
Al 1.9705919017 45.8485538277 8.0660243787 
Al 1.9853136117 43.8571589115 10.1095993429 
Al 3.9753183794 43.8695109659 12.1606833317 
Al 1.9438795653 45.8781470048 12.1168537001 
Al 5.9274187126 45.8617959582 12.1348129163 
Al -2.0832717219 43.8939494279 2.0115227006 
Al -2.0966535552 45.8904260328 4.0501884878 
Al -0.0393485590 45.8661669620 6.0442229399 
Al -2.0745720485 43.8574949390 6.0618032652 
Al -0.0436385987 43.8429938959 8.0846429496 
Al 4.0071478594 45.8578382418 6.0472048535 
Al -0.0529034333 45.8591426637 10.1058612351 
Al 4.0156766085 43.8621061892 8.0955831593 
Al 3.9812404015 45.9265021600 10.1315496136 
Al 6.0208878125 43.8692500816 10.1212793423 
Al -4.1114746173 25.7625051241 1.9796286609 
Al 7.8743384010 47.7458112932 12.1500627451 
Al -4.2305257311 48.1850394907 3.9427544014 
Al -0.0179279947 25.7610641745 1.9874446083 
Al 1.9603131636 25.7022747032 3.9845599302 
Al -0.0127838631 47.9303459700 4.0664331698 
Al 1.9967194973 47.8927997886 6.0503698624 
Al 1.9812458265 25.7922448833 8.1380797935 
Al 1.9503455816 47.8967067039 10.0227491916 
Al 3.8296374808 47.9953670323 12.2402631174 
Al 1.9711988680 25.7365331066 12.0989653937 
Al 6.0582593655 25.7178425675 12.1384541846 
Al -2.0799955857 47.8200326304 2.0496795525 
Al -2.0966302714 25.7069743260 3.9368032744 
Al -0.2266381324 25.6155155703 6.1588384903 
Al -2.0879612903 47.8761010725 6.0103645945 
Al -0.0619809391 47.8450341369 8.0635880468 
Al 3.8234397573 25.8674801241 6.0688370887 
Al -0.1742284215 25.4197919705 10.0322791439 
Al 4.0312603482 47.8429258949 8.0695561074 
Al 4.0505223986 25.6817674987 10.1573279522 
Al 6.0061364686 47.9036219917 10.0719542053 

