&CONTROL
  calculation = 'scf'
  outdir = './out/'
  prefix = 'aiida'
  pseudo_dir = '/users/aglensk/Dropbox/Albert/scripts/dotfiles/scripts/potentials/quantum_espresso/pseudo_SSSPefV1.1_alalloy'
  tprnfor = .true.             	! calculate the pressure of the cell
  tstress = .true.
  verbosity = 'high'
  wf_collect = .true.
  etot_conv_thr = 2.5d-4    ! EDIFFG positive atomic units
  forc_conv_thr = 2.0d-5
/
&SYSTEM
  degauss =   4.4100000000d-02  ! SIGMA in Rydberg  so, 0.60001101eV
  ecutrho = 400                 ! AUGMENTATION charges
  ecutwfc =  40                 ! ENCUT in Rydberg, so 544eV
  ibrav = 0                     ! no symmetry
   nat              = 196
   ntyp             = 3
  occupations = 'smearing'      ! using smearing 
  smearing = 'mp'               ! methfessel paxton
  nosym= .true. 		! no symmetry
/
&ELECTRONS
  conv_thr =   1.0000000000d-12   	! EDIFF
  mixing_beta =   4.0000000000d-01      ! MIXING
  mixing_mode = 'local-TF'                 ! MIXING
/
&IONS
  !press_conv_thr = 0.05                 ! just for volume relaxations
/
ATOMIC_SPECIES
Al 26.9815385 Al.pbe-n-kjpaw_psl.1.0.0.UPF
Si 28.085 Si.pbe-n-rrkjus_psl.1.0.0.UPF
Mg 24.305 Mg.pbe-n-kjpaw_psl.0.3.0.UPF

K_POINTS automatic
3 20 3 0 0 0
CELL_PARAMETERS angstrom
28.39899775224416 0.00000000000000 0.00000000000000
0.00000000000000 4.05699952769853 0.00000000000000
0.00000000000000 0.00000000000000 28.39899775224416

ATOMIC_POSITIONS angstrom
Al 1.9236739919 2.0246944505 28.2802202231 
Al 28.3285510361 4.0529767225 28.3047004900 
Al 1.9659928226 4.0533736055 1.9627860087 
Al 28.3071087755 2.0246828086 1.9143387767 
Al 1.8804947190 2.0249923773 3.9060808331 
Al 28.3022429911 4.0532720034 3.9555297976 
Al 1.7341936248 4.0537514380 6.0153346268 
Al 28.2261827631 2.0250278322 6.0146578092 
Al 1.8901225692 2.0252791913 8.1196146840 
Al 28.3064229619 4.0535196584 8.0763729682 
Al 1.9525967015 4.0538345188 10.0651087689 
Al 28.3169975100 2.0250929210 10.1258456124 
Al 1.8929065705 2.0252405614 12.1704752268 
Al 28.3189919790 4.0534265232 12.1538971632 
Al 1.9135809949 4.0533815431 14.2187656892 
Al 28.3231857083 2.0247822939 14.1928132512 
Al 1.9309242488 2.0247362555 16.2372084401 
Al 28.3249621562 4.0530095315 16.2193603512 
Al 1.9432477277 4.0529936562 18.2421513513 
Al 28.3296623082 2.0244034031 18.2336771074 
Al 1.9515785645 2.0244584375 20.2442192426 
Al 28.3333713113 4.0527745768 20.2462041864 
Al 1.9481330917 4.0528243195 22.2552434583 
Al 28.3321171613 2.0243002135 22.2560800875 
Al 1.9440854152 2.0244049906 24.2623940968 
Al 28.3298469911 4.0527597599 24.2688516463 
Al 1.9391360208 4.0529629639 26.2760017556 
Al 28.3258956248 2.0244250993 26.2836811752 
Al 5.9878920259 2.0252765455 28.1758955819 
Al 3.9498416717 4.0533651386 28.2738187664 
Al 6.0013807530 4.0540520106 1.7214917842 
Al 3.8842670902 2.0250897459 1.8675886160 
Si 5.9290237071 2.0258792783 3.4009240345 
Mg 4.1944559540 4.0540779403 4.2289461371 
Al 5.9479185086 2.0261766759 6.0341479350 
Si 3.3869394684 2.0255802932 6.0094660516 
Si 6.0742690928 2.0263481293 8.6683460508 
Mg 4.2492173285 4.0543478207 7.7676636838 
Al 5.8759160114 4.0547325325 10.2585431481 
Al 3.8808364343 2.0257062374 10.1334038505 
Al 5.7725380683 2.0260348564 12.2689032464 
Al 3.8372412282 4.0540504231 12.1786134432 
Al 5.9521011252 4.0539821592 14.3055359348 
Al 3.9272024123 2.0252506158 14.2504126031 
Al 6.0351062750 2.0252876582 16.2162651937 
Al 3.9488944445 4.0533857765 16.2526191389 
Al 5.9876581296 4.0534042977 18.2619288204 
Al 3.9690222289 2.0247807064 18.2449215940 
Al 5.9933404344 2.0247632436 20.2563389883 
Al 3.9663779304 4.0530227610 20.2518849037 
Al 5.9950353890 4.0531174837 22.2530251474 
Al 3.9691555816 2.0245219388 22.2546820013 
Al 5.9938320401 2.0247976401 24.2402533223 
Al 3.9695577562 4.0530000063 24.2602017156 
Al 5.9983935476 4.0534175272 26.2350815402 
Al 3.9559510226 2.0247420765 26.2534265266 
Al 10.0379625072 2.0253913769 28.2109091212 
Al 8.0911274872 4.0539123079 28.2998288846 
Mg 10.3100215071 4.0545669001 2.1566019246 
Al 8.0268663234 2.0256686658 1.8210718225 
Si 9.6054194054 2.0263550086 3.8552729416 
Mg 7.5924679263 4.0547822752 4.3191946645 
Mg 10.6076413539 4.0552146130 5.5388015527 
Si 8.5205500310 2.0265899633 5.9905024571 
Al 10.1118922677 2.0269868462 7.9092180585 
Mg 7.7337725294 4.0551410573 7.6951828105 
Si 9.9271332197 4.0554474509 9.4750661248 
Mg 8.2859668319 2.0267402496 10.4399816091 
Al 10.0479353809 4.0552722933 12.1663391778 
Si 7.4816576893 4.0548082049 12.2193913098 
Si 10.1195341158 4.0544917569 14.7544073285 
Mg 8.3297567752 2.0261010036 13.9599773953 
Al 10.0956290645 2.0256924787 16.4324584263 
Al 7.9980896667 4.0539091328 16.2785228925 
Al 10.0840427295 4.0538551567 18.3567991815 
Al 8.0274769939 2.0251675350 18.2632364172 
Al 10.0827435995 2.0251326093 20.2937031328 
Al 8.0277468743 4.0534021810 20.2751443588 
Al 10.0806845709 4.0533847182 22.2687914532 
Al 8.0325221695 2.0248267448 22.2546105624 
Al 10.0734787648 2.0249950232 24.2380948084 
Al 8.0301350511 4.0533069291 24.2475766057 
Al 10.0746620051 4.0536164978 26.2364706304 
Al 8.0298254824 2.0250908043 26.2294606199 
Al 14.2322602372 2.0252241569 28.2395280831 
Al 12.1305382228 4.0539689298 28.0913410013 
Mg 13.9140728598 4.0544256097 2.1615888907 
Si 12.1187740842 2.0258708115 1.3706155430 
Si 14.7685411227 2.0262751029 3.9024400939 
Al 12.2034302668 2.0265121742 3.9599140308 
Mg 13.9712822081 4.0551632828 5.6812804000 
Si 12.3341264543 2.0269339285 6.6513855252 
Mg 14.5272770613 2.0267360162 8.4330855049 
Al 12.1510930531 4.0554929602 8.2164848058 
Si 13.7360788133 4.0552812893 10.1408091564 
Mg 11.6479471279 2.0268497893 10.5901938521 
Mg 14.6595697764 2.0264809528 11.8129636326 
Si 12.6434718097 4.0550336344 12.2734292990 
Al 14.2172522424 4.0545171574 14.3090607842 
Mg 11.9315416619 2.0262798655 13.9725268329 
Al 14.1415994808 2.0257459256 16.2284415613 
Al 12.1931340658 4.0541970052 16.3166982657 
Al 14.1947373396 4.0538191727 18.2973233673 
Al 12.1457113209 2.0253940228 18.2895095366 
Al 14.1882739691 2.0250929210 20.2751247793 
Al 12.1413075082 4.0535641092 20.2839376965 
Al 14.1827054373 4.0533328588 22.2663985139 
Al 12.1324723655 2.0249812646 22.2521779347 
Al 14.1873606093 2.0248722541 24.2451265152 
Al 12.1308975341 4.0534392234 24.2279737651 
Al 14.1919268794 4.0534487486 26.2556892883 
Al 12.1340445510 2.0252103983 26.1658857990 
Al 18.2826540458 2.0248838960 28.2625954469 
Al 16.1945366482 4.0536059142 28.3000511391 
Al 18.3133833664 4.0536096185 1.8651088916 
Al 16.2882301193 2.0253839684 1.8096119608 
Al 18.4122003312 2.0256173356 3.9388998746 
Al 16.4786677679 4.0544774691 3.8499610608 
Al 18.3729951792 4.0542784985 5.9864791227 
Al 16.3774605097 2.0262565817 5.8611085747 
Mg 18.0063431070 2.0260311522 8.3546810218 
Si 16.1828592947 4.0549214488 7.4551258023 
Si 18.8652252369 4.0542435728 10.1147979798 
Al 16.3084679725 4.0550262259 10.0955772052 
Mg 18.0557121656 2.0258792783 11.8975785393 
Si 16.3194912630 4.0546325180 12.7298139509 
Al 18.3615929978 4.0539070161 14.2634356542 
Al 16.2407010097 2.0258956828 14.4116957625 
Al 18.2873658397 2.0252596118 16.2564794866 
Al 16.2468161816 4.0540271393 16.3547259984 
Al 18.2736633250 4.0534238773 18.2741776852 
Al 16.2275361391 2.0252929500 18.2918305078 
Al 18.2537276319 2.0247621852 20.2641745153 
Al 16.2277340514 4.0534185855 20.2835508680 
Al 18.2512627245 4.0530476323 22.2669626168 
Al 16.2226994594 2.0248018735 22.2690089451 
Al 18.2528301474 2.0245764440 24.2662803742 
Al 16.2240250483 4.0531651096 24.2630492181 
Al 18.2547574108 4.0531000208 26.2711423212 
Al 16.2348610100 2.0248262157 26.2543293029 
Al 22.3071112918 2.0245187637 28.2943095663 
Al 20.3013243430 4.0531063710 28.2760857615 
Al 22.3146457169 4.0531640513 1.9212551228 
Al 20.3268973608 2.0249436930 1.8962059904 
Al 22.3247249552 2.0249923773 3.9598500003 
Al 20.3538451811 4.0536688863 3.9450192798 
Al 22.3307702757 4.0535561716 5.9896589486 
Al 20.2988530854 2.0254818662 6.0517637152 
Al 22.3424979010 2.0251998148 8.0409583126 
Al 20.3616685370 4.0539392959 7.9994872237 
Al 22.4231789044 4.0536789407 10.1048118767 
Al 20.5191109282 2.0254987999 10.1055934714 
Al 22.3435075711 2.0250627579 12.1665831285 
Al 20.3672370688 4.0537921846 12.2211450031 
Al 22.3346999456 4.0533360339 14.2114021883 
Al 20.2771901579 2.0252230986 14.1646499109 
Al 22.3072658115 2.0247717104 16.2202186766 
Al 20.3142621966 4.0534053561 16.2485682873 
Al 22.3057391353 4.0530322862 18.2412496333 
Al 20.2922547748 2.0247637727 18.2501324020 
Al 22.2977337424 2.0244748420 20.2543593364 
Al 20.2823046557 4.0530217026 20.2614302022 
Al 22.2929245799 4.0527565848 22.2651750562 
Al 20.2750681573 2.0244192784 22.2661704385 
Al 22.2920128076 2.0242795756 24.2714313852 
Al 20.2714702815 4.0528449574 24.2724685725 
Al 22.2979570552 4.0527936272 26.2817475617 
Al 20.2826835466 2.0245155886 26.2722795231 
Al 26.3156096114 2.0244568500 28.3046369888 
Al 24.3107931736 4.0528740622 28.3077157418 
Al 26.3100574841 4.0530248777 1.9275692653 
Al 24.3068576827 2.0246140156 1.9325953904 
Al 26.2998962233 2.0247330805 3.9565865645 
Al 24.3168861200 4.0532021520 3.9611523054 
Al 26.2884390075 4.0533307421 6.0075610136 
Al 24.3131702376 2.0249389304 6.0022411951 
Al 26.3100992891 2.0249669768 8.0698529758 
Al 24.3379949989 4.0534392234 8.0460156592 
Al 26.3338265369 4.0533921267 10.1121282808 
Al 24.3594705977 2.0250040192 10.1090796909 
Al 26.3264857906 2.0248791334 12.1533806862 
Al 24.3448690109 4.0533159251 12.1620628967 
Al 26.3318574685 4.0531185420 14.1836362601 
Al 24.3302547239 2.0247198510 14.1932768105 
Al 26.3230265592 2.0244732545 16.2093467308 
Al 24.3196590086 4.0529925979 16.2173150813 
Al 26.3191217606 4.0528243195 18.2292230229 
Al 24.3083954717 2.0244732545 18.2291574049 
Al 26.3191741491 2.0243060345 20.2470117108 
Al 24.3089209446 4.0528147943 20.2481012867 
Al 26.3191307566 4.0526930836 22.2606601162 
Al 24.3079234456 2.0242859257 22.2602240742 
Al 26.3194599048 2.0242642295 24.2734046870 
Al 24.3083065699 4.0526623913 24.2724828603 
Al 26.3231159901 4.0527587015 26.2929163759 
Al 24.3105402269 2.0242668753 26.2894555570 

