&CONTROL
  calculation = 'scf'
  outdir = './out/'
  prefix = 'aiida'
  pseudo_dir = '/users/aglensk/Dropbox/Albert/scripts/dotfiles/scripts/potentials/quantum_espresso/pseudo_SSSPefV1.1_alalloy'
  tprnfor = .true.             	! calculate the pressure of the cell
  tstress = .true.
  verbosity = 'high'
  wf_collect = .true.
  etot_conv_thr = 2.5d-4    ! EDIFFG positive atomic units
  forc_conv_thr = 2.0d-5
/
&SYSTEM
  degauss =   4.4100000000d-02  ! SIGMA in Rydberg  so, 0.60001101eV
  ecutrho = 400                 ! AUGMENTATION charges
  ecutwfc =  40                 ! ENCUT in Rydberg, so 544eV
  ibrav = 0                     ! no symmetry
   nat              = 300
   ntyp             = 3
  occupations = 'smearing'      ! using smearing 
  smearing = 'mp'               ! methfessel paxton
  nosym= .true. 		! no symmetry
/
&ELECTRONS
  conv_thr =   1.0000000000d-12   	! EDIFF
  mixing_beta =   4.0000000000d-01      ! MIXING
  mixing_mode = 'local-TF'                 ! MIXING
/
&IONS
  !press_conv_thr = 0.05                 ! just for volume relaxations
/
ATOMIC_SPECIES
Al 26.9815385 Al.pbe-n-kjpaw_psl.1.0.0.UPF
Mg 24.305 Mg.pbe-n-kjpaw_psl.0.3.0.UPF
Si 28.085 Si.pbe-n-rrkjus_psl.1.0.0.UPF

K_POINTS automatic
4 7 4 0 0 0
CELL_PARAMETERS angstrom
20.28499869684709 0.00000000000000 0.00000000000000
0.00000000000000 12.17099911227282 0.00000000000000
0.00000000000000 0.00000000000000 20.28499869684709

ATOMIC_POSITIONS angstrom
Al 1.9880034195 2.0248828376 20.2420940670 
Al 20.2484510728 12.1676843462 20.2382887536 
Al 1.9835715603 12.1692655277 1.9752550113 
Al 20.2481203370 2.0246235408 1.9789640143 
Al 1.9824322418 2.0272456139 4.0029573051 
Al 20.2486595686 12.1689300294 4.0015930862 
Al 1.9750671534 12.1661153358 6.0342590622 
Al 20.2491718122 2.0251463679 6.0366334804 
Al 1.9801689509 2.0267550666 8.0741197316 
Al 20.2497740158 12.1677674270 8.0731746211 
Al 1.9752481320 12.1660042086 10.1157642574 
Al 20.2492194381 2.0253834393 10.1118610463 
Al 1.9828148369 2.0271117320 12.1477105524 
Al 20.2493189234 12.1686257525 12.1491012301 
Al 1.9834302700 12.1690983077 14.1764669672 
Al 20.2498555091 2.0248574371 14.1732770870 
Al 1.9881563517 2.0252209819 16.1950451875 
Al 20.2489606705 12.1675885652 16.2002845711 
Al 1.9854559604 12.1679663977 18.2197994351 
Al 20.2491834541 2.0253628013 18.2199200875 
Al 6.0331223896 2.0276467302 20.2358000332 
Al 4.0057894615 12.1693030993 20.2378172568 
Al 6.0204687041 12.1664682970 1.9628066466 
Al 4.0158856335 2.0272112173 1.9842452029 
Al 6.0544233599 2.0197572272 4.0258706783 
Al 3.9956207922 12.1651876881 3.9909952542 
Al 5.9790727585 12.1532483919 6.0096216297 
Al 3.9978840832 2.0206917541 6.0339595479 
Al 5.9538691063 2.0408274761 8.0755490393 
Al 3.9653497391 12.1560461518 8.0738768393 
Al 5.9793172384 12.1534420708 10.1417029367 
Al 3.9972501289 2.0205282383 10.1161621987 
Al 6.0543487459 2.0196720296 12.1260650878 
Al 3.9960002123 12.1643976266 12.1607912839 
Al 6.0208153152 12.1661190400 14.1905838277 
Al 4.0153749775 2.0273652079 14.1678297368 
Al 6.0343760104 2.0277880205 16.2018710444 
Al 4.0050607845 12.1692930449 16.2002311242 
Al 6.0302976417 12.1678378076 18.2197274670 
Al 4.0095714910 2.0240419750 18.2191871771 
Al 10.1064078751 2.0272789520 20.2314507257 
Al 8.0652062707 12.1676510081 20.2263425781 
Al 10.1062655265 12.1577670361 1.9368055243 
Al 8.0664270825 2.0221395830 1.9658568240 
Al 8.0374355799 12.1527657823 3.9504454629 
Al 8.0360972907 12.1536256953 12.2017040907 
Al 10.1066650553 12.1576082830 14.2159732210 
Al 8.0663741648 2.0227513118 14.1863519975 
Al 10.1077149428 2.0273837291 16.2061102830 
Al 8.0659386520 12.1674001781 16.2109384959 
Al 10.1091664759 12.1684130232 18.2200148102 
Al 8.0692692933 2.0262666360 18.2200079309 
Al 14.1791832338 2.0289188722 20.2359005769 
Al 12.1466119805 12.1683013669 20.2276565251 
Al 14.1927291121 12.1673282100 1.9630638267 
Al 12.1468950903 2.0212807283 1.9653366428 
Al 14.1578880845 2.0202223739 4.0260865826 
Al 12.1814990465 12.1530737634 3.9463184099 
Al 14.2390294721 12.1554667028 6.0073085961 
Al 14.2634091954 2.0470976969 8.0741657700 
Al 14.2359978159 12.1566203091 10.1394497002 
Al 14.1588326658 2.0216606776 12.1267487847 
Al 12.1788050053 12.1534150827 12.2041256057 
Al 14.1923258790 12.1672197286 14.1867811602 
Al 12.1488064784 2.0215241499 14.1871510551 
Al 14.1806617550 2.0288532542 16.2016069849 
Al 12.1474988815 12.1681854770 16.2097991773 
Al 14.1822180651 12.1688591196 18.2197883224 
Al 12.1465209620 2.0262438814 18.2200772531 
Al 18.2255891630 2.0243705941 20.2411082098 
Al 16.2092541248 12.1703704497 20.2365705152 
Al 18.2322112866 12.1699317618 1.9747395927 
Al 16.1997220557 2.0286405250 1.9846595487 
Al 18.2327335845 2.0274869187 4.0032271854 
Al 16.2206658314 12.1672551835 3.9895029745 
Al 18.2409384771 12.1670514503 6.0338616502 
Al 16.2202451355 2.0226528848 6.0351539009 
Al 18.2363182309 2.0285553275 8.0740086044 
Al 16.2502796464 12.1606753941 8.0758168029 
Al 18.2426651824 12.1669461440 10.1164008576 
Al 16.2206372558 2.0235572487 10.1172221406 
Al 18.2343189994 2.0272038089 12.1491784900 
Al 16.2213601119 12.1679071298 12.1621031142 
Al 18.2324298368 12.1693221497 14.1770067280 
Al 16.2003554808 2.0278070709 14.1678011612 
Al 18.2262088295 2.0245473393 16.1970285437 
Al 16.2079967998 12.1699328202 16.1993907908 
Al 18.2266327004 12.1683214756 18.2197862057 
Al 16.2032167420 2.0235620113 18.2201719758 
Mg 8.2088805293 1.9336124690 6.1755663111 
Mg 12.0075198674 1.9372304536 6.1772723785 
Al 10.1079758272 2.0427277515 3.9258778818 
Si 10.1046843450 12.0256584747 5.6342746467 
Si 7.6614816306 12.0222733281 8.0747076475 
Al 10.1064618512 0.7607726751 8.0753204347 
Mg 8.2105199202 1.9332108235 9.9714195313 
Mg 12.0072039486 1.9379093880 9.9770632063 
Si 12.5642846735 12.0267014830 8.0761242549 
Si 10.1039662515 12.0250308705 10.5158661503 
Al 10.1048346313 2.0423864322 12.2255207695 
Al 1.9859861959 6.0793592484 20.2417993153 
Al 20.2495205399 4.0510536926 20.2438123054 
Al 1.9890908786 4.0517485022 1.9819776786 
Al 20.2487093113 6.0801784147 1.9824777510 
Al 1.9927681311 6.0782749643 4.0099069894 
Al 20.2484859985 4.0552775851 4.0070504908 
Al 1.9856120676 4.0501742000 6.0360593231 
Al 20.2488823522 6.0766831992 6.0359709505 
Al 1.9752714158 6.0741934204 8.0745732365 
Al 20.2492596556 4.0481823770 8.0734741354 
Al 1.9864444634 4.0500620145 10.1141190454 
Al 20.2493120441 6.0768398357 10.1139026120 
Al 1.9936693198 6.0781469034 12.1424584686 
Al 20.2492998730 4.0557803034 12.1436676385 
Al 1.9894380189 4.0520104450 14.1699935424 
Al 20.2487437078 6.0800043154 14.1694961158 
Al 1.9859957211 6.0793952324 16.1954902256 
Al 20.2494242297 4.0510997310 16.1932608020 
Al 1.9875393310 4.0513526777 18.2194988624 
Al 20.2499274772 6.0797296724 18.2192935417 
Al 6.0389893773 6.0780267802 20.2446420552 
Al 4.0114458367 4.0517887197 20.2422290072 
Al 6.0428730089 4.0483125546 1.9850342061 
Al 4.0121200085 6.0789475485 1.9820432965 
Al 6.0424422586 6.0805964647 4.0094794142 
Al 4.0177811463 4.0470901553 4.0109145428 
Al 6.0454829109 4.0510097709 6.0394598159 
Al 4.0169159415 6.0739351820 6.0381400479 
Al 6.0403604755 6.0918970440 8.0740631097 
Al 3.9957065189 4.0694812306 8.0741276693 
Al 6.0461110442 4.0514706842 10.1123653522 
Al 4.0174853362 6.0737589660 10.1120732463 
Al 6.0420797722 6.0814463233 12.1430421511 
Al 4.0177171158 4.0473827903 12.1407486970 
Al 6.0426941470 4.0483966938 14.1683356302 
Al 4.0122866993 6.0789618363 14.1709513531 
Al 6.0390322407 6.0784786975 16.1930512478 
Al 4.0108764420 4.0517876614 16.1957077174 
Al 6.0369356406 4.0539646964 18.2194956874 
Al 4.0097514113 6.0794470918 18.2195676555 
Al 10.1071619527 6.0744548340 20.2259912045 
Al 8.0667620517 4.0504080964 20.2376034692 
Al 10.1066391256 4.0724149890 1.9633596368 
Al 8.0702482712 6.0735996836 1.9844230064 
Al 10.1115064976 6.0916245178 4.0059804945 
Al 8.0694259298 4.0484046314 4.0155511935 
Al 10.1091172624 4.1387775155 6.0469984744 
Al 8.0699895035 6.1222040812 6.0333599902 
Al 10.1117959575 6.1663554526 8.0731412830 
Al 8.0772011305 4.1397882439 8.0752489958 
Al 10.1102174219 4.1404629449 10.1023686655 
Al 8.0690142299 6.1247933453 10.1175110714 
Al 10.1089071791 6.0926146083 12.1443100597 
Al 8.0689179197 4.0485543886 12.1348848844 
Al 10.1070947472 4.0730785772 14.1885099822 
Al 8.0709933527 6.0747749862 14.1688822703 
Al 10.1081515140 6.0746966680 16.2109136246 
Al 8.0675828055 4.0506081253 16.2000205117 
Al 10.1084155735 4.0478257116 18.2201280541 
Al 8.0663011383 6.0762947831 18.2197036540 
Al 14.1735792472 6.0782199298 20.2446865061 
Al 12.1452953876 4.0513807241 20.2385321752 
Al 14.1712683303 4.0479527141 1.9843536842 
Al 12.1445682981 6.0742050623 1.9838938292 
Al 14.1757626323 6.0829872873 4.0077643509 
Al 12.1473776999 4.0493174621 4.0160729622 
Al 14.1712207043 4.0525814272 6.0377246438 
Al 12.1517275366 6.1244260963 6.0324349884 
Al 14.1797124110 6.0937719189 8.0729809423 
Al 12.1407180048 4.1397093965 8.0734958317 
Al 14.1724378119 4.0534122354 10.1112614885 
Al 12.1503241587 6.1237625081 10.1149149280 
Al 14.1748101134 6.0828317092 12.1417477836 
Al 12.1458631948 4.0511357150 12.1360575411 
Al 14.1710571886 4.0485797891 14.1662173338 
Al 12.1442026367 6.0740113835 14.1675603856 
Al 14.1739814219 6.0779638081 16.1934200843 
Al 12.1456483488 4.0511320108 16.1992685509 
Al 14.1753816248 4.0537382085 18.2199322586 
Al 12.1477534158 6.0765387338 18.2199417838 
Al 18.2286758536 6.0791856782 20.2422528201 
Al 16.2021822006 4.0507160775 20.2417474559 
Al 18.2262749766 4.0514193540 1.9803800926 
Al 16.2012783659 6.0788433006 1.9802329813 
Al 18.2217092356 6.0794306873 4.0075828431 
Al 16.1991441942 4.0472171578 4.0098694178 
Al 18.2291595216 4.0511373026 6.0345596349 
Al 16.1982202508 6.0758190528 6.0356418023 
Al 18.2410988178 6.0757703685 8.0725999347 
Al 16.2227370310 4.0734236008 8.0746346211 
Al 18.2300395433 4.0511912786 10.1140867656 
Al 16.1984832519 6.0763154211 10.1129162256 
Al 18.2214859229 6.0792629381 12.1421473124 
Al 16.1994796926 4.0476023988 12.1412043186 
Al 18.2261373905 4.0516654214 14.1712122375 
Al 16.2013455714 6.0790179291 14.1712069457 
Al 18.2287044292 6.0787083604 16.1949589317 
Al 16.2016053974 4.0513304522 16.1949663401 
Al 18.2263871622 4.0503012026 18.2196412111 
Al 16.2023928131 6.0791893825 18.2201942013 
Al 1.9860936189 10.1391470108 20.2410140163 
Al 20.2490516889 8.1092978451 20.2428804243 
Al 1.9866444924 8.1070620713 1.9808664064 
Al 20.2490194091 10.1395264309 1.9758159391 
Al 1.9799768595 10.1373393414 4.0012808717 
Al 20.2493855998 8.1059926042 4.0029075624 
Al 1.9797948226 8.1031980194 6.0350189607 
Al 20.2493967125 10.1385231109 6.0346390115 
Al 1.9717545040 10.1292111795 8.0742795431 
Al 20.2493109858 8.1045908138 8.0735984921 
Al 1.9797329088 8.1029979904 10.1161087518 
Al 20.2493977708 10.1378600518 10.1139804010 
Al 1.9797498425 10.1373208202 12.1502760035 
Al 20.2493543783 8.1051067616 12.1476100087 
Al 1.9873038472 8.1069181351 14.1716218207 
Al 20.2497332692 10.1390178916 14.1761298813 
Al 1.9871138726 10.1388363838 16.1955468475 
Al 20.2493019898 8.1092629194 16.1939609034 
Al 1.9868482256 8.1088088853 18.2191697142 
Al 20.2486712105 10.1378611102 18.2197539259 
Al 6.0304140606 10.1371842925 20.2323905445 
Al 4.0082220891 8.1063677908 20.2413579815 
Al 6.0402001348 8.1073451812 1.9763265951 
Al 4.0054010454 10.1348696714 1.9744776500 
Al 6.0364450933 10.1295503821 4.0063710273 
Al 4.0109738106 8.1072467542 4.0093301862 
Al 6.0364630853 8.1120876673 6.0339664273 
Al 3.9904205678 10.1327169785 6.0305468841 
Al 5.9327639316 10.0574018320 8.0739953750 
Al 3.9764952695 8.0817308875 8.0745981078 
Al 6.0357338791 8.1131460217 10.1156129127 
Al 3.9896474399 10.1329958549 10.1196611184 
Al 6.0372716681 10.1292154129 12.1457520676 
Al 4.0108388704 8.1070440793 12.1430283925 
Al 6.0422358795 8.1074420206 14.1753683953 
Al 4.0063667938 10.1345114184 14.1773432847 
Al 6.0315973009 10.1366291856 16.2049249261 
Al 4.0092047712 8.1062026876 16.1954844046 
Al 6.0308326398 8.1061243693 18.2198100186 
Al 4.0037246120 10.1398566374 18.2191062129 
Al 10.1059136236 10.1295482654 20.2212910525 
Al 8.0650200003 8.1035689726 20.2309982792 
Al 10.1067380817 8.0813969766 1.9408817764 
Al 8.0625392176 10.1353723898 1.9564925041 
Al 10.1058178425 10.0572563083 3.9013235300 
Al 8.0680246685 8.1132629699 4.0008998641 
Al 10.1104878314 8.1546874911 6.0311363875 
Al 8.0691327656 10.1627573104 6.0375727699 
Al 10.1046393649 10.1666896263 8.0748769842 
Al 8.0661751942 8.1510620980 8.0739308154 
Al 10.1118298248 8.1545996477 10.1193679542 
Al 8.0687544039 10.1617349400 10.1135739929 
Al 10.1084118692 10.0584411361 12.2495792822 
Al 8.0705520189 8.1146912192 12.1506623029 
Al 10.1110360590 8.0822727649 14.2107248415 
Al 8.0649930123 10.1342314837 14.1959348676 
Al 10.1079043883 10.1296451048 16.2164832147 
Al 8.0666699749 8.1035292843 16.2073533203 
Al 10.1088410319 8.1015337570 18.2195999353 
Al 8.0665673145 10.1382664599 18.2199740636 
Al 14.1813242848 10.1388649593 20.2324434622 
Al 12.1479280442 8.1034266239 20.2293281959 
Al 14.1708809726 8.1089210709 1.9759842175 
Al 12.1485567068 10.1356327449 1.9557950485 
Al 14.1764076994 10.1302589504 4.0084258224 
Al 12.1478857101 8.1154659346 4.0015756234 
Al 14.1805421609 8.1151711829 6.0353248252 
Al 12.1447275805 10.1678194196 6.0414272967 
Al 14.2801989299 10.0641848255 8.0759676185 
Al 12.1542935169 8.1557712460 8.0742906559 
Al 14.1802294172 8.1146991568 10.1166389873 
Al 12.1455986062 10.1690254145 10.1088140439 
Al 14.1778248359 10.1316543907 12.1432850434 
Al 12.1502262609 8.1151791206 12.1493150177 
Al 14.1725304179 8.1088057103 14.1761108309 
Al 12.1511883050 10.1360206318 14.1945775281 
Al 14.1819619434 10.1389416900 16.2045624397 
Al 12.1493795773 8.1034319157 16.2068786483 
Al 14.1816825378 8.1078558372 18.2200836033 
Al 12.1490255578 10.1398878589 18.2197301129 
Al 18.2273285684 10.1403450680 20.2420723707 
Al 16.2040306166 8.1083511470 20.2418797502 
Al 18.2263353028 8.1084564533 1.9794079940 
Al 16.2073691956 10.1367085622 1.9752153230 
Al 18.2354424426 10.1378584643 3.9999976169 
Al 16.2047121968 8.1081548223 4.0079283958 
Al 18.2358843056 8.1042748950 6.0326223171 
Al 16.2282738121 10.1368371523 6.0305929225 
Al 18.2441220072 10.1310675331 8.0738620223 
Al 16.2434479686 8.0824548019 8.0742562594 
Al 18.2346830733 8.1047379250 10.1148948192 
Al 16.2273392852 10.1374525854 10.1215508102 
Al 18.2355895539 10.1373933175 12.1508268770 
Al 16.2045428601 8.1078844127 12.1428611725 
Al 18.2266115333 8.1076182366 14.1717509399 
Al 16.2088731172 10.1364529696 14.1775120922 
Al 18.2280159696 10.1400566664 16.1966941037 
Al 16.2045391559 8.1073303642 16.1965771556 
Al 18.2287991519 8.1091242749 18.2197576301 
Al 16.2091784525 10.1410875036 18.2201555714 

