Al 
 1.0000000000000000
     4.0408904787070368    0.0000000000000000    0.0000000000000000
     0.0000000000000000    4.0408904787070368    0.0000000000000000
     0.0000000000000000    0.0000000000000000    4.0408904787070368
   4
Cartesian
  0.0000000000000000  0.0000000000000000  0.0000000000000000
  0.0000000000000000  2.0204452393535179  2.0204452393535179
  2.0204452393535179  0.0000000000000000  2.0204452393535179
  2.0204452393535179  2.0204452393535179  0.0000000000000000
