&CONTROL
  calculation = 'scf'
  outdir = './out/'
  prefix = 'aiida'
  pseudo_dir = '/users/aglensk/Dropbox/Albert/scripts/dotfiles/scripts/potentials/quantum_espresso/pseudo_SSSPefV1.1_alalloy'
  tprnfor = .true.             	! calculate the pressure of the cell
  tstress = .true.
  verbosity = 'high'
  wf_collect = .true.
  etot_conv_thr = 2.5d-4    ! EDIFFG positive atomic units
  forc_conv_thr = 2.0d-5
/
&SYSTEM
  degauss =   4.4100000000d-02  ! SIGMA in Rydberg  so, 0.60001101eV
  ecutrho = 400                 ! AUGMENTATION charges
  ecutwfc =  40                 ! ENCUT in Rydberg, so 544eV
  ibrav = 0                     ! no symmetry
   nat              = 22
   ntyp             = 3
  occupations = 'smearing'      ! using smearing 
  smearing = 'mp'               ! methfessel paxton
  nosym= .true. 		! no symmetry
/
&ELECTRONS
  conv_thr =   1.0000000000d-12   	! EDIFF
  mixing_beta =   4.0000000000d-01      ! MIXING
  mixing_mode = 'local-TF'                 ! MIXING
/
&IONS
  !press_conv_thr = 0.05                 ! just for volume relaxations
/
ATOMIC_SPECIES
Al 26.9815385 Al.pbe-n-kjpaw_psl.1.0.0.UPF
Mg 24.305 Mg.pbe-n-kjpaw_psl.0.3.0.UPF
Si 28.085 Si.pbe-n-rrkjus_psl.1.0.0.UPF

K_POINTS automatic
6 20 13 0 0 0
CELL_PARAMETERS angstrom
15.43224523452271 0.00000000000000 0.00000000000000
0.00000000000000 4.05703339504001 0.00000000000000
-1.68781388815663 0.00000000000000 6.18865074684859

ATOMIC_POSITIONS angstrom
Al 2.0468288749 0.0000000000 6.1178108520 
Mg 4.2772536663 2.0285166975 2.0848354405 
Mg 4.5610106577 2.0285166975 5.5637543749 
Mg 8.9366055584 0.0000000000 0.4832329868 
Mg 9.2203366201 0.0000000000 3.9621402793 
Si 3.5096408465 0.0000000000 4.0330955347 
Si 6.1803982282 0.0000000000 1.2645033412 
Al 6.0420279129 0.0000000000 3.8005316759 
Al 7.4555777196 2.0285166975 2.2464413980 
Si 7.3171931165 2.0285166975 4.7824697327 
Si 9.9879780154 2.0285166975 2.0138939437 
Al 9.7629506984 2.0285166975 6.1178124396 
Mg 11.9933760190 0.0000000000 2.0848370280 
Mg 12.2771345979 0.0000000000 5.5637549041 
Mg 1.2204821474 2.0285166975 0.4832319284 
Mg 1.5042137382 2.0285166975 3.9621386918 
Si 11.2257637284 2.0285166975 4.0330971223 
Si 13.8965200517 2.0285166975 1.2645033412 
Al 13.7581507947 2.0285166975 3.8005316759 
Al -0.2605451622 0.0000000000 2.2464408688 
Si -0.3989287070 0.0000000000 4.7824686744 
Si 2.2718556627 0.0000000000 2.0138918270 

