&CONTROL
  calculation = 'scf'
  outdir = './out/'
  prefix = 'aiida'
  pseudo_dir = '/users/aglensk/Dropbox/Albert/scripts/dotfiles/scripts/potentials/quantum_espresso/pseudo_SSSPefV1.1_alalloy'
  tprnfor = .true.             	! calculate the pressure of the cell
  tstress = .true.
  verbosity = 'high'
  wf_collect = .true.
  etot_conv_thr = 2.5d-4    ! EDIFFG positive atomic units
  forc_conv_thr = 2.0d-5
/
&SYSTEM
  degauss =   4.4100000000d-02  ! SIGMA in Rydberg  so, 0.60001101eV
  ecutrho = 400                 ! AUGMENTATION charges
  ecutwfc =  40                 ! ENCUT in Rydberg, so 544eV
  ibrav = 0                     ! no symmetry
   nat              = 255
   ntyp             = 2
  occupations = 'smearing'      ! using smearing 
  smearing = 'mp'               ! methfessel paxton
  nosym= .true. 		! no symmetry
/
&ELECTRONS
  conv_thr =   1.0000000000d-12   	! EDIFF
  mixing_beta =   4.0000000000d-01      ! MIXING
  mixing_mode = 'local-TF'                 ! MIXING
/
&IONS
  !press_conv_thr = 0.05                 ! just for volume relaxations
/
ATOMIC_SPECIES
Al 26.9815385 Al.pbe-n-kjpaw_psl.1.0.0.UPF
Si 28.085 Si.pbe-n-rrkjus_psl.1.0.0.UPF

K_POINTS automatic
5 5 5 0 0 0
CELL_PARAMETERS angstrom
16.22799863997135 0.00000000000000 0.00000000000000
0.00000000000000 16.22799863997135 0.00000000000000
0.00000000000000 0.00000000000000 16.22799863997135

ATOMIC_POSITIONS angstrom
Al 1.9907853041 0.0182174547 1.9582917066 
Si 1.9966792798 1.9966792798 0.0000000000 
Al 0.0182174547 1.9907853041 1.9582917066 
Al 0.0035364913 0.0035364913 4.0429562229 
Al 2.0251024462 2.0251024462 4.0427710109 
Al 2.0275641785 0.0010281913 6.0826099840 
Al 0.0010281913 2.0275641785 6.0826099840 
Al 0.0003153896 0.0003153896 8.1139995846 
Al 2.0290003655 2.0290003655 8.1139995846 
Al 2.0275641785 0.0010281913 10.1453886560 
Al 0.0010281913 2.0275641785 10.1453886560 
Al 0.0035364913 0.0035364913 12.1850424171 
Al 2.0251024462 2.0251024462 12.1852281583 
Al 1.9907853041 0.0182174547 14.2697069334 
Al 0.0182174547 1.9907853041 14.2697069334 
Al 0.0112656536 4.0459730622 0.0000000000 
Al 2.0283981618 6.0793507815 0.0000000000 
Al 2.0255866433 4.0442405360 2.0177675208 
Al 0.0009403479 6.0826015171 2.0273329281 
Al 0.0008239289 4.0403050451 4.0379814279 
Al 2.0271466577 6.0792941596 4.0524988755 
Al 2.0271318408 4.0558924890 6.0818532606 
Al 0.0005445233 6.0827862000 6.0826845980 
Al 0.0001434070 4.0571429347 8.1139995846 
Al 2.0286553419 6.0849145507 8.1139995846 
Al 2.0271318408 4.0558924890 10.1461453794 
Al 0.0005445233 6.0827862000 10.1453140420 
Al 0.0008239289 4.0403050451 12.1900172120 
Al 2.0271466577 6.0792941596 12.1754997644 
Al 2.0255866433 4.0442405360 14.2102311191 
Al 0.0009403479 6.0826015171 14.2006657119 
Al 0.0004429213 8.1118331331 0.0000000000 
Al 2.0281938994 10.1411801096 0.0000000000 
Al 2.0292427287 8.1114108497 2.0284738342 
Al 0.0001127147 10.1419622336 2.0278933268 
Al 0.0004736136 8.1134100812 4.0569624853 
Al 2.0271620039 10.1438159413 4.0563946781 
Al 2.0286786257 8.1134042602 6.0851410386 
Al 0.0000560928 10.1446419869 6.0833217273 
Al 0.0000566220 8.1139794758 8.1139995846 
Al 2.0286188287 10.1421569708 8.1139995846 
Al 2.0286786257 8.1134042602 10.1428576014 
Al 0.0000560928 10.1446419869 10.1446774418 
Al 0.0004736136 8.1134100812 12.1710361547 
Al 2.0271620039 10.1438159413 12.1716039618 
Al 2.0292427287 8.1114108497 14.1995253350 
Al 0.0001127147 10.1419622336 14.2001053132 
Al 0.0000306923 12.1754240921 0.0000000000 
Al 1.9951134445 14.2328047606 0.0000000000 
Al 2.0266100720 12.1753928707 2.0266719858 
Al 0.0039915837 14.2398274713 1.9916002370 
Al 0.0002979268 12.1859727106 4.0424201664 
Al 2.0268873609 14.2070650519 4.0484305611 
Al 2.0270164801 12.1716923344 6.0833555947 
Al 0.0002550634 14.2011271544 6.0850314989 
Al 0.0001471113 12.1707451072 8.1139995846 
Al 2.0291104344 14.1998222034 8.1139995846 
Al 2.0270164801 12.1716923344 10.1446430453 
Al 0.0002550634 14.2011271544 10.1429671411 
Al 0.0002979268 12.1859727106 12.1855790028 
Al 2.0268873609 14.2070650519 12.1795680788 
Al 2.0266100720 12.1753928707 14.2013271834 
Al 0.0039915837 14.2398274713 14.2363989322 
Al 4.0459730622 0.0112656536 0.0000000000 
Al 6.0793507815 2.0283981618 0.0000000000 
Al 6.0826015171 0.0009403479 2.0273329281 
Al 4.0442405360 2.0255866433 2.0177675208 
Al 4.0403050451 0.0008239289 4.0379814279 
Al 6.0792941596 2.0271466577 4.0524988755 
Al 6.0827862000 0.0005445233 6.0826845980 
Al 4.0558924890 2.0271318408 6.0818532606 
Al 4.0571429347 0.0001434070 8.1139995846 
Al 6.0849145507 2.0286553419 8.1139995846 
Al 6.0827862000 0.0005445233 10.1453140420 
Al 4.0558924890 2.0271318408 10.1461453794 
Al 4.0403050451 0.0008239289 12.1900172120 
Al 6.0792941596 2.0271466577 12.1754997644 
Al 6.0826015171 0.0009403479 14.2006657119 
Al 4.0442405360 2.0255866433 14.2102311191 
Al 4.0318048715 4.0318048715 0.0000000000 
Al 6.0781135652 6.0781135652 0.0000000000 
Al 6.0801149134 4.0562645006 2.0265788506 
Al 4.0562645006 6.0801149134 2.0265788506 
Al 4.0573265592 4.0573265592 4.0553347362 
Al 6.0866375517 6.0866375517 4.0578319235 
Al 6.0851749059 4.0562814342 6.0849844021 
Al 4.0562814342 6.0851749059 6.0849844021 
Al 4.0566920757 4.0566920757 8.1139995846 
Al 6.0850748914 6.0850748914 8.1139995846 
Al 6.0851749059 4.0562814342 10.1430142378 
Al 4.0562814342 6.0851749059 10.1430142378 
Al 4.0573265592 4.0573265592 12.1726639038 
Al 6.0866375517 6.0866375517 12.1701672457 
Al 6.0801149134 4.0562645006 14.2014197894 
Al 4.0562645006 6.0801149134 14.2014197894 
Al 4.0570953088 8.1115209185 0.0000000000 
Al 6.0827110568 10.1446409286 0.0000000000 
Al 6.0851516221 8.1131962936 2.0280108041 
Al 4.0569640728 10.1440567170 2.0268534935 
Al 4.0562708507 8.1133492258 4.0559776865 
Al 6.0856548696 10.1421209867 4.0562607963 
Al 6.0849584724 8.1142133722 6.0853426551 
Al 4.0565872987 10.1421400371 6.0859400962 
Al 4.0578266317 8.1138281312 8.1139995846 
Al 6.0851696141 10.1429322154 8.1139995846 
Al 6.0849584724 8.1142133722 10.1426565141 
Al 4.0565872987 10.1421400371 10.1420585438 
Al 4.0562708507 8.1133492258 12.1720214826 
Al 6.0856548696 10.1421209867 12.1717383728 
Al 6.0851516221 8.1131962936 14.1999878359 
Al 4.0569640728 10.1440567170 14.2011456756 
Al 4.0421381149 12.1875644757 0.0000000000 
Al 6.0806472657 14.2050028483 0.0000000000 
Al 6.0833555947 12.1718590252 2.0263804091 
Al 4.0528841165 14.2052367446 2.0267021489 
Al 4.0592321263 12.1688278982 4.0593083279 
Al 6.0852304695 14.2000243491 4.0581896472 
Al 6.0857818722 12.1711721532 6.0860893241 
Al 4.0566380997 14.2014695321 6.0837440107 
Al 4.0565105680 12.1712764011 8.1139995846 
Al 6.0856913829 14.1994549544 8.1139995846 
Al 6.0857818722 12.1711721532 10.1419098450 
Al 4.0566380997 14.2014695321 10.1442551584 
Al 4.0592321263 12.1688278982 12.1686908413 
Al 6.0852304695 14.2000243491 12.1698089927 
Al 6.0833555947 12.1718590252 14.2016182309 
Al 4.0528841165 14.2052367446 14.2012964911 
Al 8.1118331331 0.0004429213 0.0000000000 
Al 10.1411801096 2.0281938994 0.0000000000 
Al 10.1419622336 0.0001127147 2.0278933268 
Al 8.1114108497 2.0292427287 2.0284738342 
Al 8.1134100812 0.0004736136 4.0569624853 
Al 10.1438159413 2.0271620039 4.0563946781 
Al 10.1446419869 0.0000560928 6.0833217273 
Al 8.1134042602 2.0286786257 6.0851410386 
Al 8.1139794758 0.0000566220 8.1139995846 
Al 10.1421569708 2.0286188287 8.1139995846 
Al 10.1446419869 0.0000560928 10.1446774418 
Al 8.1134042602 2.0286786257 10.1428576014 
Al 8.1134100812 0.0004736136 12.1710361547 
Al 10.1438159413 2.0271620039 12.1716039618 
Al 10.1419622336 0.0001127147 14.2001053132 
Al 8.1114108497 2.0292427287 14.1995253350 
Al 8.1115209185 4.0570953088 0.0000000000 
Al 10.1446409286 6.0827110568 0.0000000000 
Al 10.1440567170 4.0569640728 2.0268534935 
Al 8.1131962936 6.0851516221 2.0280108041 
Al 8.1133492258 4.0562708507 4.0559776865 
Al 10.1421209867 6.0856548696 4.0562607963 
Al 10.1421400371 4.0565872987 6.0859400962 
Al 8.1142133722 6.0849584724 6.0853426551 
Al 8.1138281312 4.0578266317 8.1139995846 
Al 10.1429322154 6.0851696141 8.1139995846 
Al 10.1421400371 4.0565872987 10.1420585438 
Al 8.1142133722 6.0849584724 10.1426565141 
Al 8.1133492258 4.0562708507 12.1720214826 
Al 10.1421209867 6.0856548696 12.1717383728 
Al 10.1440567170 4.0569640728 14.2011456756 
Al 8.1131962936 6.0851516221 14.1999878359 
Al 8.1135312627 8.1135312627 0.0000000000 
Al 10.1443990946 10.1443990946 0.0000000000 
Al 10.1421119907 8.1141662754 2.0287945156 
Al 8.1141662754 10.1421119907 2.0287945156 
Al 8.1139720674 8.1139720674 4.0578806078 
Al 10.1423104322 10.1423104322 4.0568227825 
Al 10.1428803560 8.1136794324 6.0847118759 
Al 8.1136794324 10.1428803560 6.0847118759 
Al 8.1138683486 8.1138683486 8.1139995846 
Al 10.1428184423 10.1428184423 8.1139995846 
Al 10.1428803560 8.1136794324 10.1432872933 
Al 8.1136794324 10.1428803560 10.1432872933 
Al 8.1139720674 8.1139720674 12.1701180322 
Al 10.1423104322 10.1423104322 12.1711763866 
Al 10.1421119907 8.1141662754 14.1992041244 
Al 8.1141662754 10.1421119907 14.1992041244 
Al 8.1133746263 12.1710382714 0.0000000000 
Al 10.1419325996 14.2004794415 0.0000000000 
Al 10.1440249663 12.1709557197 2.0269625041 
Al 8.1132783160 14.1992845594 2.0286204163 
Al 8.1141382290 12.1711160604 4.0564555335 
Al 10.1437312730 14.2009260671 4.0568973965 
Al 10.1420543104 12.1715404606 6.0857765804 
Al 8.1141583377 14.1994200287 6.0860189436 
Al 8.1138836948 12.1703201779 8.1139995846 
Al 10.1424046257 14.1995152806 8.1139995846 
Al 10.1420543104 12.1715404606 10.1422225887 
Al 8.1141583377 14.1994200287 10.1419796964 
Al 8.1141382290 12.1711160604 12.1715431064 
Al 10.1437312730 14.2009260671 12.1711012435 
Al 10.1440249663 12.1709557197 14.2010361359 
Al 8.1132783160 14.1992845594 14.1993782237 
Al 12.1754240921 0.0000306923 0.0000000000 
Al 14.2328047606 1.9951134445 0.0000000000 
Al 14.2398274713 0.0039915837 1.9916002370 
Al 12.1753928707 2.0266100720 2.0266719858 
Al 12.1859727106 0.0002979268 4.0424201664 
Al 14.2070650519 2.0268873609 4.0484305611 
Al 14.2011271544 0.0002550634 6.0850314989 
Al 12.1716923344 2.0270164801 6.0833555947 
Al 12.1707451072 0.0001471113 8.1139995846 
Al 14.1998222034 2.0291104344 8.1139995846 
Al 14.2011271544 0.0002550634 10.1429671411 
Al 12.1716923344 2.0270164801 10.1446430453 
Al 12.1859727106 0.0002979268 12.1855790028 
Al 14.2070650519 2.0268873609 12.1795680788 
Al 14.2398274713 0.0039915837 14.2363989322 
Al 12.1753928707 2.0266100720 14.2013271834 
Al 12.1875644757 4.0421381149 0.0000000000 
Al 14.2050028483 6.0806472657 0.0000000000 
Al 14.2052367446 4.0528841165 2.0267021489 
Al 12.1718590252 6.0833555947 2.0263804091 
Al 12.1688278982 4.0592321263 4.0593083279 
Al 14.2000243491 6.0852304695 4.0581896472 
Al 14.2014695321 4.0566380997 6.0837440107 
Al 12.1711721532 6.0857818722 6.0860893241 
Al 12.1712764011 4.0565105680 8.1139995846 
Al 14.1994549544 6.0856913829 8.1139995846 
Al 14.2014695321 4.0566380997 10.1442551584 
Al 12.1711721532 6.0857818722 10.1419098450 
Al 12.1688278982 4.0592321263 12.1686908413 
Al 14.2000243491 6.0852304695 12.1698089927 
Al 14.2052367446 4.0528841165 14.2012964911 
Al 12.1718590252 6.0833555947 14.2016182309 
Al 12.1710382714 8.1133746263 0.0000000000 
Al 14.2004794415 10.1419325996 0.0000000000 
Al 14.1992845594 8.1132783160 2.0286204163 
Al 12.1709557197 10.1440249663 2.0269625041 
Al 12.1711160604 8.1141382290 4.0564555335 
Al 14.2009260671 10.1437312730 4.0568973965 
Al 14.1994200287 8.1141583377 6.0860189436 
Al 12.1715404606 10.1420543104 6.0857765804 
Al 12.1703201779 8.1138836948 8.1139995846 
Al 14.1995152806 10.1424046257 8.1139995846 
Al 14.1994200287 8.1141583377 10.1419796964 
Al 12.1715404606 10.1420543104 10.1422225887 
Al 12.1711160604 8.1141382290 12.1715431064 
Al 14.2009260671 10.1437312730 12.1711012435 
Al 14.1992845594 8.1132783160 14.1993782237 
Al 12.1709557197 10.1440249663 14.2010361359 
Al 12.1855170890 12.1855170890 0.0000000000 
Al 14.2352728431 14.2352728431 0.0000000000 
Al 14.2020923736 12.1748599892 2.0269296951 
Al 12.1748599892 14.2020923736 2.0269296951 
Al 12.1685458467 12.1685458467 4.0595422242 
Al 14.2019960634 14.2019960634 4.0535556424 
Al 14.2007228630 12.1707916748 6.0841774069 
Al 12.1707916748 14.2007228630 6.0841774069 
Al 12.1714478545 12.1714478545 8.1139995846 
Al 14.1989384775 14.1989384775 8.1139995846 
Al 14.2007228630 12.1707916748 10.1438212331 
Al 12.1707916748 14.2007228630 10.1438212331 
Al 12.1685458467 12.1685458467 12.1684569450 
Al 14.2019960634 14.2019960634 12.1744429976 
Al 14.2020923736 12.1748599892 14.2010694741 
Al 12.1748599892 14.2020923736 14.2010694741 

