Al 
 1.0000000000000000
     4.0471452236107428    0.0000000000000000    0.0000000000000000
     0.0000000000000000    4.0471452236107428    0.0000000000000000
     0.0000000000000000    0.0000000000000000    4.0471452236107428
   4
Cartesian
  0.0000000000000000  0.0000000000000000  0.0000000000000000
  0.0000000000000000  2.0235726118053710  2.0235726118053710
  2.0235726118053710  0.0000000000000000  2.0235726118053710
  2.0235726118053710  2.0235726118053710  0.0000000000000000
