Al 
 1.0000000000000000
    20.2324027656870271    0.0000000000221605    0.0000000000089812
     0.0000000000221605   20.2324027656876915   -0.0000000000159763
     0.0000000000089812   -0.0000000000159763   20.2324027656875565
 501
Cartesian
 19.7385614837082137  0.0000000000216269  0.0000000000087739
  0.0127100223004622  2.0105302542698245  2.0105302542697983
  2.0232402765698239  0.0000000000002385  2.5170815585484276
  2.0232402765714634  2.5170815585497750 -0.0000000000010762
 20.1357613118338961  0.0000000000187889  4.1331907413399769
 20.2193376275994687  2.0363054146785977  6.0973332718910456
  2.0232402765713982 -0.0000000000025732  6.0667714218963464
  2.0232402765728614  2.1198817304226898  4.1331907413302673
 20.2312236043008937  0.0000000000157655  8.0977995764910560
 20.2313423532561742  2.0243006890205022 10.1162013828511590
  2.0232402765731949 -0.0000000000057710 10.1162013828446753
  2.0232402765745170  2.0244194379543221  8.0977995764813731
 20.2312236043026843  0.0000000000125768 12.1346031892144683
 20.2193376276030321  2.0363054146722539 14.1350694938112493
  2.0232402765749917 -0.0000000000089702 14.1656313437930237
  2.0232402765763071  2.0244194379511362 12.1346031892047925
 20.1357613118391860  0.0000000000093401 16.0992120243654426
  0.0127100223076691  2.0105302542570160 18.2218725114145919
  2.0232402765765696 -0.0000000000117635 17.7153212071408355
  2.0232402765781741  2.1198817304132636 16.0992120243557260
 20.1357613118365926  4.1331907413531246  0.0000000000056731
 20.2193376276021084  6.0973332719042563  2.0363054146654158
  2.0232402765741710  4.1331907413316120  2.1198817304213606
  2.0232402765753470  6.0667714218976929 -0.0000000000038893
 20.2108280357567018  4.0602103136897671  4.0602103136765741
 20.2247346566264419  6.0791071307041182  6.0791071306909021
  2.0232402765758857  4.0817952351917137  6.1063378966435256
  2.0232402765772033  6.1063378966448818  4.0817952351903681
 20.2280551363529746  4.0544201212625088  8.1038067415305122
 20.2291808375316222  6.0761577780900415 10.1162013828479562
  2.0232402765776274  4.0492833715966032 10.1162013828414779
  2.0232402765789641  6.0827640621659107  8.1046599506337156
 20.2280551363547545  4.0544201212593345 12.1285960241686013
 20.2247346566300266  6.0791071306977411 14.1532956350050103
  2.0232402765794442  4.0817952351853855 14.1260648690393804
  2.0232402765807480  6.0827640621627301 12.1277428150460356
 20.2108280357620735  4.0602103136802059 16.1721924520225144
 20.2193376276092778  6.0973332718914968 18.1960973510304633
  2.0232402765812707  4.1331907413189812 18.1125210352614729
  2.0232402765825617  6.1063378966353508 16.1506075304893351
 20.2312236043061624  8.0977995765042881  0.0000000000025886
 20.2313423532614394 10.1162013828644035  2.0243006890073105
  2.0232402765784676  8.0977995764827408  2.0244194379529934
  2.0232402765797795 10.1162013828460591 -0.0000000000070883
 20.2280551363556107  8.1038067415437443  4.0544201212493078
 20.2291808375342548 10.1162013828612078  6.0761577780768246
  2.0232402765802804  8.1046599506350852  6.0827640621645527
  2.0232402765815758 10.1162013828428634  4.0492833715952639
 20.2283018647460011  8.0974219758960473  8.0974219758828134
 20.2284062372365128 10.1162013828580104 10.1162013828447712
  2.0232402765820634  8.0991152613381345 10.1162013828382769
  2.0232402765833779 10.1162013828396642  8.0991152613367632
 20.2283018647477917  8.0974219758928516 12.1349807898099176
 20.2291808375378395 10.1162013828548272 14.1562449876127197
  2.0232402765838611  8.1046599506287116 14.1496387035120037
  2.0232402765851663 10.1162013828364774 12.1332875043366109
 20.2280551363609860  8.1038067415341661 16.1779826444434107
 20.2313423532686230 10.1162013828516244 18.2081020766822341
  2.0232402765856525  8.0977995764699617 18.2079833277235714
  2.0232402765869657 10.1162013828332817 16.1831193940781120
 20.2312236043105855 12.1346031892277235 -0.0000000000006022
 20.2193376276109085 14.1350694938245045  2.0363054146590662
  2.0232402765828907 12.1346031892061816  2.0244194379498039
  2.0232402765842181 14.1656313437944306 -0.0000000000102889
 20.2280551363600161 12.1285960241818564  4.0544201212461290
 20.2247346566352846 14.1532956350182761  6.0791071306845312
  2.0232402765846835 12.1277428150474318  6.0827640621613766
  2.0232402765859856 14.1260648690407873  4.0817952351840416
 20.2283018647504242 12.1349807898231727  8.0974219758796249
 20.2291808375404720 14.1562449876259890 10.1162013828415809
  2.0232402765864816 12.1332875043380088 10.1162013828350901
  2.0232402765877988 14.1496387035134124  8.1046599506273438
 20.2283018647522148 12.1349807898199860 12.1349807898067272
 20.2247346566388728 14.1532956350119026 14.1532956349986332
  2.0232402765882660 12.1277428150410618 14.1496387035088276
  2.0232402765895849 14.1496387035102398 12.1277428150396620
 20.2280551363654020 12.1285960241722854 16.1779826444402310
 20.2193376276180850 14.1350694938117449 18.1960973510241111
  2.0232402765900757 12.1346031891934043 18.2079833277203775
  2.0232402765913444 14.1260648690312625 16.1506075304829970
 20.1357613118496808 16.0992120243786658 -0.0000000000037759
  0.0127100223182214 18.2218725114147198  2.0105302542569907
  2.0232402765872743 16.0992120243571470  2.1198817304119268
  2.0232402765881052 17.7153212071422885 -0.0000000000130809
 20.2108280357699641 16.1721924520357874  4.0602103136670147
 20.2193376276171648 18.1960973510437576  6.0973332718782869
  2.0232402765891035 16.1506075304907597  6.1063378966339963
  2.0232402765903754 18.1125210352629082  4.1331907413176365
 20.2280551363662511 16.1779826444566943  8.1038067415209376
 20.2313423532739023 18.2081020766955213 10.1162013828383834
  2.0232402765909185 16.1831193940795401 10.1162013828318962
  2.0232402765922419 18.2079833277250103  8.0977995764685975
 20.2280551363680381 16.1779826444535146 12.1285960241590267
 20.2193376276207317 18.1960973510374089 14.1350694937984809
  2.0232402765926629 16.1506075304844252 14.1260648690298520
  2.0232402765940329 18.2079833277218235 12.1346031891920063
 20.2108280357753429 16.1721924520262199 16.1721924520129470
  0.0127100223254307 18.2218725114019264 18.2218725114017985
  2.0232402765943780 16.0992120243445278 18.1125210352520050
  2.0232402765956881 18.1125210352534403 16.0992120243430996
  4.5403218351162025  0.0000000000049813  0.0000000000020277
  4.0337705308431318  2.0105302542742303  2.0105302542715853
  6.1564310179005837  0.0000000000050670  2.1198817304264659
  6.1564310179019657  2.1198817304304902  0.0000000000010547
  4.1431220069942043  0.0000000000012747  4.1331907413328830
  4.0595456912348400  2.0363054146608972  6.0973332718838771
  6.1050355117656006  0.0000000000018647  6.1063378966485624
  6.0834505902434488  2.0448150065088049  4.0602103136718988
  4.0476597145307336 -0.0000000000019596  8.0977995764838724
  4.0475409655816748  2.0243006890027755 10.1162013828439754
  6.0725236481754399 -0.0000000000013396 10.1162013828464747
  6.0776603978211430  2.0275879059111173  8.1038067415258297
  4.0476597145325250 -0.0000000000051492 12.1346031892072830
  4.0595456912384122  2.0363054146545538 14.1350694938040782
  6.1050355117691639 -0.0000000000044663 14.1260648690444164
  6.0776603978229282  2.0275879059079402 12.1285960241639259
  4.1431220069995396 -0.0000000000081752 16.0992120243583408
  4.0337705308503207  2.0105302542614201 18.2218725114163789
  6.1564310179076758 -0.0000000000075591 18.1125210352665640
  6.0834505902488276  2.0448150064992419 16.1721924520178355
  4.1431220069968981  4.1331907413356097 -0.0000000000014250
  4.0595456912374841  6.0973332718865594  2.0363054146582424
  6.0834505902447606  4.0602103136758876  2.0448150065048294
  6.1050355117695787  6.1063378966525752 -0.0000000000021112
  4.0680552830802323  4.0602103136720826  4.0602103136694128
  4.0541486622167060  6.0791071306864053  6.0791071306837248
  6.0785060237208652  4.0552657471470068  6.0822865808135465
  6.0785060237221868  6.0822865808175450  4.0552657471430251
  4.0508281824875336  4.0544201212447906  8.1038067415233339
  4.0497024813151024  6.0761577780723197 10.1162013828407762
  6.0748785605392488  4.0516382839604157 10.1162013828432773
  6.0744752832840678  6.0749731875669806  8.0972499530436952
  4.0508281824893224  4.0544201212416136 12.1285960241614212
  4.0541486622202907  6.0791071306800273 14.1532956349978303
  6.0785060237244473  4.0552657471406368 14.1501161848730046
  6.0744752832858575  6.0749731875637911 12.1351528126396584
  4.0680552830856112  4.0602103136625241 16.1721924520153486
  4.0595456912446588  6.0973332718737971 18.1960973510232904
  6.0834505902519256  4.0602103136631360 18.1875877591817137
  6.0785060237275657  6.0822865808079731 16.1771370185403285
  4.0476597145360058  8.0977995764865565 -0.0000000000045986
  4.0475409655869434 10.1162013828466772  2.0243006890001252
  6.0776603978251007  8.1038067415298443  2.0275879059071458
  6.0725236481820266 10.1162013828504929 -0.0000000000052949
  4.0508281824901715  8.1038067415260233  4.0544201212421287
  4.0497024813177340 10.1162013828434851  6.0761577780696436
  6.0744752832853841  8.0972499530477080  6.0749731875629838
  6.0748785605431994 10.1162013828472972  4.0516382839564349
  4.0505814541033596  8.0974219758783228  8.0974219758756281
  4.0504770816190563 10.1162013828402966 10.1162013828375823
  6.0739529726397086  8.0956507372398239 10.1162013828400763
  6.0739529726410249 10.1162013828441086  8.0956507372358164
  4.0505814541051492  8.0974219758751307 12.1349807898027358
  4.0497024813213196 10.1162013828370991 14.1562449876055378
  6.0744752832889688  8.0972499530413238 14.1574295781171760
  6.0739529726428199 10.1162013828409130 12.1367520284411565
  4.0508281824955530  8.1038067415164452 16.1779826444362271
  4.0475409655941270 10.1162013828338981 18.2081020766750399
  6.0776603978322807  8.1038067415170687 18.2048148597730126
  6.0748785605485800 10.1162013828377209 16.1807644817205443
  4.0476597145404272 12.1346031892099973 -0.0000000000077864
  4.0595456912462922 14.1350694938068067  2.0363054146518960
  6.0776603978295078 12.1285960241679600  2.0275879059039692
  6.1050355117783663 14.1260648690484842 -0.0000000000084473
  4.0508281824945813 12.1285960241641391  4.0544201212389517
  4.0541486622255487 14.1532956350005641  6.0791071306773512
  6.0744752832898055 12.1351528126436943  6.0749731875597952
  6.0785060237310287 14.1501161848770565  4.0552657471366551
  4.0505814541077809 12.1349807898054554  8.0974219758724413
  4.0497024813239522 14.1562449876082663 10.1162013828343920
  6.0739529726441353 12.1367520284451960 10.1162013828368860
  6.0744752832929176 14.1574295781212314  8.0972499530373128
  4.0505814541095715 12.1349807898022668 12.1349807897995472
  4.0541486622291316 14.1532956349941905 14.1532956349914567
  6.0744752832933928 12.1351528126373136 14.1574295781139909
  6.0744752832947109 14.1574295781180375 12.1351528126332759
  4.0508281824999628 12.1285960241545681 16.1779826444330439
  4.0595456912534678 14.1350694937940453 18.1960973510169346
  6.0776603978366888 12.1285960241551862 18.2048148597698258
  6.0785060237364030 14.1501161848674837 16.1771370185339585
  4.1431220070100219 16.0992120243611510 -0.0000000000108783
  4.0337705308608829 18.2218725114191180  2.0105302542587764
  6.0834505902580327 16.1721924520219069  2.0448150064952646
  6.1564310179194788 18.1125210352706922 -0.0000000000115724
  4.0680552830935017 16.1721924520181020  4.0602103136598480
  4.0595456912525432 18.1960973510260544  6.0973332718711157
  6.0785060237341444 16.1771370185443999  6.0822865808039781
  6.0834505902611298 18.1875877591857957  4.0602103136591499
  4.0508281825008128 16.1779826444389698  8.1038067415137540
  4.0475409655994010 18.2081020766778074 10.1162013828311927
  6.0748785605525324 16.1807644817246086 10.1162013828336921
  6.0776603978388621 18.2048148597770840  8.1038067415130559
  4.0508281825025998 16.1779826444357973 12.1285960241518485
  4.0595456912561136 18.1960973510197057 14.1350694937913133
  6.0785060237377264 16.1771370185380263 14.1501161848634336
  6.0776603978406518 18.2048148597739043 12.1285960241511432
  4.0680552830988779 16.1721924520085452 16.1721924520057918
  4.0337705308680665 18.2218725114063389 18.2218725114035891
  6.0834505902651923 16.1721924520091598 18.1875877591721391
  6.0834505902665050 18.1875877591762318 16.1721924520050884
  8.0900116984639805  0.0000000000088608  0.0000000000035909
  8.1205735484553578  2.0363054146685529  2.0363054146632504
 10.1210398530514656  0.0000000000094870  2.0244194379629801
 10.1210398530527819  2.0244194379695863  0.0000000000028958
  8.1295781732162062  0.0000000000056824  4.0817952351979070
  8.1023474072601918  2.0309083856427854  6.0791071306887208
 10.1279002272088121  0.0000000000062906  6.0827640621745500
 10.1270470180972438  2.0275879059187525  4.0544201212496240
  8.1060043387421974  0.0000000000024747  8.1046599506412154
  8.0993980546510880  2.0264622047362053 10.1162013828457713
 10.1223555379168317  0.0000000000030978 10.1162013828482653
 10.1206622524545278  2.0273411775269485  8.0974219758831154
  8.1060043387439791 -0.0000000000006987 12.1277428150535425
  8.1023474072637729  2.0309083856364096 14.1532956350028236
 10.1279002272123861 -0.0000000000000798 14.1496387035220010
 10.1206622524563219  2.0273411775237591 12.1349807898102249
  8.1295781732215566 -0.0000000000038481 16.1506075304968704
  8.1205735484625290  2.0363054146557933 18.1960973510282997
 10.1210398530586456 -0.0000000000032918 18.2079833277335617
 10.1270470181026226  2.0275879059091775 16.1779826444437234
  8.1295781732188654  4.0817952352032263  0.0000000000003847
  8.1023474072628296  6.0791071306940356  2.0309083856374959
 10.1270470180985672  4.0544201212562445  2.0275879059121418
 10.1279002272127734  6.0827640621811856 -0.0000000000003104
  8.1055268573888348  4.0552657471508269  4.0552657471455271
  8.0977815508331616  6.0745412742593832  6.0745412742540701
 10.1204902296214261  4.0512350067115390  6.0749731875679736
 10.1204902296227406  6.0749731875746056  4.0512350067049212
  8.0982134641432584  4.0512350067077252  8.0972499530461910
  8.0967049992959819  6.0734647227172101 10.1162013828425703
 10.1188910138185282  4.0507126960608772 10.1162013828450661
 10.1184954822252795  6.0733747047226405  8.0952552056462341
  8.0982134641450507  4.0512350067045348 12.1351528126421560
  8.0977815508367481  6.0745412742529989 14.1578614914310847
 10.1204902296250072  4.0512350067051539 14.1574295781221675
 10.1184954822270683  6.0733747047194493 12.1371475600407113
  8.1055268573942154  4.0552657471412532 16.1771370185428260
  8.1023474072700044  6.0791071306812663 18.2014943800476523
 10.1270470181057473  4.0544201212434690 18.2048148597780077
 10.1204902296281247  6.0749731875650292 16.1811677589820313
  8.1060043387474732  8.1046599506465498 -0.0000000000028038
  8.0993980546563531 10.1162013828511181  2.0264622047309149
 10.1206622524584855  8.0974219758897643  2.0273411775203436
 10.1223555379234238 10.1162013828549302 -0.0000000000034959
  8.0982134641458892  8.0972499530515254  4.0512350067024263
  8.0967049992986109 10.1162013828479136  6.0734647227118996
 10.1184954822265905  8.0952552056528795  6.0733747047160120
 10.1188910138224717 10.1162013828517292  4.0507126960542612
  8.0966149812989165  8.0952552056490692  8.0952552056437437
  8.0963597974041264 10.1162013828447233 10.1162013828393818
 10.1182002836918130  8.0949600071131087 10.1162013828418722
 10.1182002836931240 10.1162013828485300  8.0949600071064634
  8.0966149813007107  8.0952552056458735 12.1371475600382190
  8.0967049993022009 10.1162013828415347 14.1589380429668683
 10.1184954822301840  8.0952552056464953 14.1590280609677439
 10.1182002836949234 10.1162013828453414 12.1374427585740978
  8.0982134641512786  8.0972499530419455 16.1811677589795337
  8.0993980546635367 10.1162013828383390 18.2059405609478553
 10.1206622524656691  8.0974219758769905 18.2050615881634101
 10.1188910138278629 10.1162013828421493 16.1816900696263026
  8.1060043387518768 12.1277428150588982 -0.0000000000059814
  8.1023474072716777 14.1532956350081971  2.0309083856311205
 10.1206622524629086 12.1349807898168951  2.0273411775171537
 10.1279002272216090 14.1496387035286926 -0.0000000000066813
  8.0982134641503158 12.1351528126475117  4.0512350066992369
  8.0977815508420132 14.1578614914364547  6.0745412742476850
 10.1184954822310171 12.1371475600473833  6.0733747047128217
 10.1204902296315851 14.1574295781288555  4.0512350066985361
  8.0966149813033415 12.1371475600435765  8.0952552056405480
  8.0967049993048299 14.1589380429722400 10.1162013828361896
 10.1182002836962344 12.1374427585807680 10.1162013828386836
 10.1184954822341293 14.1590280609744301  8.0952552056398481
  8.0966149813051391 12.1371475600403826 12.1371475600350269
  8.0977815508456015 14.1578614914300704 14.1578614914247041
 10.1184954822346089 12.1371475600410026 14.1590280609645518
 10.1184954822359234 14.1590280609712362 12.1371475600343306
  8.0982134641556982 12.1351528126379353 16.1811677589763434
  8.1023474072788488 14.1532956349954304 18.2014943800412645
 10.1206622524700904 12.1349807898041231 18.2050615881602198
 10.1204902296369799 14.1574295781192756 16.1811677589756435
  8.1295781732320869 16.1506075305022776 -0.0000000000091458
  8.1205735484730592 18.1960973510337141  2.0363054146504900
 10.1270470181118455 16.1779826444504273  2.0275879059025650
 10.1210398530705081 18.2079833277402727 -0.0000000000098861
  8.1055268574021113 16.1771370185482226  4.0552657471359517
  8.1023474072779003 18.2014943800530560  6.0791071306759523
 10.1204902296347026 16.1811677589887317  6.0749731875583954
 10.1270470181149648 18.2048148597847259  4.0544201212368476
  8.0982134641565438 16.1811677589849197  8.0972499530366147
  8.0993980546688071 18.2059405609532448 10.1162013828329940
 10.1188910138318136 16.1816900696330102 10.1162013828354933
 10.1206622524722452 18.2050615881701248  8.0974219758703452
  8.0982134641583361 16.1811677589817293 12.1351528126325761
  8.1023474072814849 18.2014943800466718 14.1532956349900587
 10.1204902296382926 16.1811677589823439 14.1574295781125894
 10.1206622524740375 18.2050615881669380 12.1349807897974458
  8.1055268574074955 16.1771370185386445 16.1771370185332586
  8.1205735484802304 18.1960973510209492 18.1960973510155348
 10.1270470181190273 16.1779826444376518 18.2048148597684296
 10.1270470181203454 18.2048148597751513 16.1779826444309478
 12.1394416594122134  0.0000000000132980  0.0000000000053912
 12.1394416594153345  2.0243006890180282  2.0243006890101096
 14.1578434657747643  0.0000000000139089  2.0244194379647724
 14.1578434657760841  2.0244194379740081  0.0000000000046865
 12.1394416594140147  0.0000000000100993  4.0492833716077383
 12.1394416594171322  2.0264622047438201  6.0761577780796223
 14.1509830916210202  0.0000000000106972  6.0827640621763344
 14.1518363007352299  2.0275879059231601  4.0544201212514093
 12.1394416594158088  0.0000000000069001  8.0991152613492421
 12.1394416594189227  2.0272368050401552 10.1162013828475619
 14.1565277809165764  0.0000000000075160 10.1162013828500577
 14.1582210663815253  2.0273411775313708  8.0974219758849095
 12.1394416594175976  0.0000000000037147 12.1332875043490898
 12.1394416594207168  2.0264622047374363 14.1562449876155174
 14.1509830916246031  0.0000000000043270 14.1496387035237881
 14.1582210663833177  2.0273411775281809 12.1349807898120154
 12.1394416594193970  0.0000000000005184 16.1831193940905962
 12.1394416594225127  2.0243006890052486 18.2081020766850230
 14.1578434657819479  0.0000000000011298 18.2079833277353522
 14.1518363007406123  2.0275879059135868 16.1779826444455104
 12.1394416594166561  4.0492833716156698  0.0000000000021896
 12.1394416594197683  6.0761577780875689  2.0264622047358984
 14.1518363007365533  4.0544201212606534  2.0275879059139288
 14.1509830916249832  6.0827640621855918  0.0000000000014743
 12.1394416594184538  4.0516382839718457  4.0516382839639133
 12.1394416594215659  6.0734647227248351  6.0734647227168859
 14.1583930892172738  4.0512350067159586  6.0749731875697659
 14.1583930892185919  6.0749731875790287  4.0512350067067127
 12.1394416594202426  4.0507126960646831  8.0956507372433002
 12.1394416594233530  6.0731195208253634 10.1162013828443680
 14.1599923050237599  4.0507126960653039 10.1162013828468602
 14.1603878366196465  6.0733747047270681  8.0952552056480300
 12.1394416594220349  4.0507126960614954 12.1367520284486385
 12.1394416594251577  6.0734647227184508 14.1589380429718545
 14.1583930892208691  4.0512350067095770 14.1574295781239616
 14.1603878366214424  6.0733747047238769 12.1371475600425089
 12.1394416594238379  4.0516382839622693 16.1807644817280263
 12.1394416594269536  6.0761577780747942 18.2059405609528362
 14.1518363007437333  4.0544201212478796 18.2048148597797912
 14.1583930892239795  6.0749731875694515 16.1811677589838183
 12.1394416594210899  8.0991152613572002 -0.0000000000010084
 12.1394416594241985 10.1162013828555342  2.0272368050322358
 14.1582210663854831  8.0974219758941874  2.0273411775221382
 14.1565277809231702 10.1162013828593462 -0.0000000000017073
 12.1394416594228822  8.0956507372512618  4.0507126960567543
 12.1394416594259926 10.1162013828523421  6.0731195208174160
 14.1603878366209610  8.0952552056573062  6.0733747047178053
 14.1599923050277123 10.1162013828561541  4.0507126960560571
 12.1394416594246710  8.0949600071169172  8.0949600071089556
 12.1394416594277814 10.1162013828491499 10.1162013828411741
 14.1606830351593356  8.0949600071175372 10.1162013828436681
 14.1606830351606519 10.1162013828529584  8.0949600071082557
 12.1394416594264651  8.0949600071137269 12.1374427585765883
 12.1394416594295773 10.1162013828459632 14.1592832448649499
 14.1603878366245564  8.0952552056509202 14.1590280609695434
 14.1606830351624460 10.1162013828497734 12.1374427585758955
 12.1394416594282681  8.0956507372416819 16.1816900696287966
 12.1394416594313785 10.1162013828427639 18.2051659606501133
 14.1582210663926649  8.0974219758814119 18.2050615881652007
 14.1599923050330965 10.1162013828465742 16.1816900696281039
 12.1394416594255006 12.1332875043570763 -0.0000000000041960
 12.1394416594286145 14.1562449876235146  2.0264622047295160
 14.1582210663899044 12.1349807898213182  2.0273411775189478
 14.1509830916338188 14.1496387035330997 -0.0000000000048926
 12.1394416594273018 12.1367520284566233  4.0507126960535649
 12.1394416594304158 14.1589380429798570  6.0734647227105016
 14.1603878366253948 12.1371475600518064  6.0733747047146123
 14.1583930892274452 14.1574295781332786  4.0512350067003293
 12.1394416594291048 12.1374427585845801  8.0949600071057670
 12.1394416594322099 14.1592832448729524 10.1162013828379855
 14.1606830351637623 12.1374427585851947 10.1162013828404760
 14.1603878366284999 14.1590280609788586  8.0952552056416440
 12.1394416594308954 12.1374427585813880 12.1374427585734015
 12.1394416594340058 14.1589380429734710 14.1589380429654685
 14.1603878366289813 12.1371475600454293 14.1590280609663477
 14.1603878366302940 14.1590280609756700 12.1371475600361212
 12.1394416594326895 12.1367520284470487 16.1816900696256099
 12.1394416594357999 14.1562449876107390 18.2059405609464591
 14.1582210663970862 12.1349807898085462 18.2050615881620139
 14.1583930892328294 14.1574295781236987 16.1811677589774412
 12.1394416594299361 16.1831193940986147 -0.0000000000073911
 12.1394416594330536 18.2081020766930592  2.0243006889973256
 14.1518363007498262 16.1779826444548362  2.0275879059043533
 14.1578434657938068 18.2079833277446923 -0.0000000000080936
 12.1394416594317320 16.1807644817360412  4.0516382839543335
 12.1394416594348513 18.2059405609608582  6.0761577780668485
 14.1583930892305592 16.1811677589931477  6.0749731875601887
 14.1518363007529455 18.2048148597891313  4.0544201212386355
 12.1394416594335297 16.1816900696368151  8.0956507372337221
 12.1394416594366454 18.2051659606581424 10.1162013828347881
 14.1599923050370471 16.1816900696374333 10.1162013828372821
 14.1582210663992463 18.2050615881745443  8.0974219758721357
 12.1394416594353221 16.1816900696336248 12.1367520284390551
 12.1394416594384396 18.2059405609544811 14.1562449876027401
 14.1583930892341474 16.1811677589867671 14.1574295781143800
 14.1582210664010386 18.2050615881713576 12.1349807897992363
 12.1394416594371179 16.1807644817264560 16.1807644817184482
 12.1394416594402426 18.2081020766802801 18.2081020766722510
 14.1518363007570116 16.1779826444420571 18.2048148597702202
 14.1518363007583314 18.2048148597795567 16.1779826444327384
 16.1888716203604552  0.0000000000177330  0.0000000000071855
 16.1583097703753467  2.0363054146773583  2.0363054146668196
 18.1224523009257261  0.0000000000181736  2.1198817304317794
 18.1224523009271046  2.1198817304435993  0.0000000000063693
 16.1493051456118408  0.0000000000144659  4.0817952352014650
 16.1765359115740814  2.0309083856516286  6.0791071306923046
 18.1738478070642522  0.0000000000150833  6.1063378966539155
 18.1954327285890685  2.0448150065220707  4.0602103136772731
 16.1728789800894255  0.0000000000113131  8.1046599506447947
 16.1794852641867664  2.0264622047450533 10.1162013828493560
 18.2063596706579816  0.0000000000119525 10.1162013828518571
 18.2012229210149243  2.0275879059243946  8.1038067415312103
 16.1728789800912125  0.0000000000081366 12.1277428150571183
 16.1765359115776697  2.0309083856452523 14.1532956350064083
 18.1738478070678120  0.0000000000087506 14.1260648690497739
 18.2012229210167078  2.0275879059212181 12.1285960241693047
 16.1493051456172090  0.0000000000049341 16.1506075305004302
 16.1583097703825196  2.0363054146645991 18.1960973510318667
 18.1224523009328244  0.0000000000055466 18.1125210352718753
 18.1954327285944437  2.0448150065125081 16.1721924520232072
 16.1493051456145089  4.0817952352120104  0.0000000000039450
 16.1765359115767176  6.0791071307028810  2.0309083856410806
 18.1954327285903830  4.0602103136891525  2.0448150065102033
 18.1738478070682241  6.1063378966657940  0.0000000000032434
 16.1733564614480798  4.0552657471596634  4.0552657471491056
 16.1811017680099631  6.0745412742682383  6.0745412742576539
 18.2003772951178533  4.0552657471602833  6.0822865808189270
 18.2003772951191749  6.0822865808308215  4.0552657471484039
 16.1806698546972356  4.0512350067165759  8.0972499530497792
 16.1821783195507329  6.0734647227260705 10.1162013828461621
 18.2040047583030358  4.0516382839737020 10.1162013828486579
 18.2044080355608671  6.0749731875802659  8.0972499530490829
 16.1806698546990297  4.0512350067133909 12.1351528126457442
 16.1811017680135514  6.0745412742618541 14.1578614914346783
 18.2003772951214309  4.0552657471539169 14.1501161848783852
 18.2044080355626576  6.0749731875770774 12.1351528126450425
 16.1733564614534622  4.0552657471500915 16.1771370185464107
 16.1765359115838976  6.0791071306901099 18.2014943800512299
 18.1954327285975523  4.0602103136764045 18.1875877591870889
 18.2003772951245573  6.0822865808212496 16.1771370185457144
 16.1728789800947084  8.1046599506553871  0.0000000000007755
 16.1794852641920350 10.1162013828599626  2.0264622047345004
 18.2012229210188821  8.1038067415431225  2.0275879059125264
 18.2063596706645683 10.1162013828637853  0.0000000000000925
 16.1806698546998753  8.0972499530603788  4.0512350067060137
 16.1821783195533619 10.1162013828567705  6.0734647227154879
 18.2044080355621816  8.0972499530610005  6.0749731875683679
 18.2040047583069864 10.1162013828605826  4.0516382839618146
 16.1822683375504397  8.0952552056579297  8.0952552056473284
 16.1825235214514471 10.1162013828535802 10.1162013828429682
 18.2049303462114374  8.0956507372531128 10.1162013828454640
 18.2049303462127519 10.1162013828573958  8.0956507372412023
 16.1822683375522303  8.0952552056547287 12.1371475600418108
 16.1821783195569537 10.1162013828503881 14.1589380429704601
 18.2044080355657663  8.0972499530546092 14.1574295781225619
 18.2049303462145460 10.1162013828542037 12.1367520284465424
 16.1806698547052576  8.0972499530507989 16.1811677589831255
 16.1794852641992115 10.1162013828471888 18.2059405609514364
 18.2012229210260621  8.1038067415303487 18.2048148597783950
 18.2040047583123688 10.1162013828510098 16.1807644817259337
 16.1728789800991173 12.1277428150677320 -0.0000000000023993
 16.1765359115855709 14.1532956350170398  2.0309083856347052
 18.2012229210232874 12.1285960241812347  2.0275879059093493
 18.1738478070770064 14.1260648690617039 -0.0000000000030881
 16.1806698547042984 12.1351528126563597  4.0512350067028242
 16.1811017680188165 14.1578614914453080  6.0745412742512732
 18.2044080355666047 12.1351528126569779  6.0749731875651785
 18.2003772951280105 14.1501161848903347  4.0552657471420339
 16.1822683375548628 12.1371475600524263  8.0952552056441345
 16.1821783195595863 14.1589380429810898 10.1162013828397779
 18.2049303462158640 12.1367520284584813 10.1162013828422754
 18.2044080355697133 14.1574295781345132  8.0972499530427005
 16.1822683375566641 12.1371475600492396 12.1371475600386169
 16.1811017680224047 14.1578614914389256 14.1578614914282905
 18.2044080355701965 12.1351528126505990 14.1574295781193751
 18.2044080355715110 14.1574295781313264 12.1351528126386565
 16.1806698547096808 12.1351528126467851 16.1811677589799316
 16.1765359115927438 14.1532956350042749 18.2014943800448599
 18.2012229210304675 12.1285960241684645 18.2048148597752117
 18.2003772951333929 14.1501161848807637 16.1771370185393373
 16.1493051456277179 16.1506075305110528 -0.0000000000055850
 16.1583097703930392 18.1960973510425177  2.0363054146540600
 18.1954327286036488 16.1721924520351727  2.0448150065006425
 18.1224523009446266 18.1125210352837946 -0.0000000000062597
 16.1733564614613599 16.1771370185570547  4.0552657471395346
 16.1765359115917988 18.2014943800618916  6.0791071306795361
 18.2003772951311298 16.1771370185576764  6.0822865808093551