Al 
 1.0000000000000000
    20.2324027656870271    0.0000000000221605    0.0000000000089812
     0.0000000000221605   20.2324027656876915   -0.0000000000159763
     0.0000000000089812   -0.0000000000159763   20.2324027656875565
 501
Direct
  0.9755915652877206  0.0000000000000004  0.0000000000000006
  0.0006282013285601  0.0993717986714398  0.0993717986714395
  0.1000000000000002  0.0000000000000005  0.1244084347122768
  0.1000000000000002  0.1244084347122775  0.0000000000000007
  0.9952234316915209  0.9999999999999999  0.2042857088798459
  0.9993542468364334  0.1006457531635666  0.3013647633697881
  0.1000000000000001  0.0000000000000001  0.2998542235519441
  0.1000000000000001  0.1047765683084791  0.2042857088798462
  0.9999417191619115  0.0000000000000000  0.4002391446168350
  0.9999475884080680  0.1000524115919321  0.4999999999999999
  0.1000000000000001  0.0000000000000001  0.4999999999999999
  0.1000000000000001  0.1000582808380887  0.4002391446168349
  0.9999417191619115  0.0000000000000000  0.5997608553831651
  0.9993542468364333  0.1006457531635668  0.6986352366302119
  0.1000000000000000  0.0000000000000000  0.7001457764480566
  0.1000000000000000  0.1000582808380887  0.5997608553831655
  0.9952234316915197  0.9999999999999999  0.7957142911201532
  0.0006282013285606  0.0993717986714394  0.9006282013285603
  0.1000000000000001  0.0000000000000005  0.8755915652877186
  0.1000000000000002  0.1047765683084802  0.7957142911201531
  0.9952234316915212  0.2042857088798462  0.9999999999999999
  0.9993542468364333  0.3013647633697881  0.1006457531635667
  0.1000000000000000  0.2042857088798462  0.1047765683084792
  0.1000000000000000  0.2998542235519435  0.0000000000000002
  0.9989336545843599  0.2006786025709503  0.2006786025709503
  0.9996209985952362  0.3004639241858302  0.3004639241858301
  0.1000000000000001  0.2017454517125703  0.3018098229539836
  0.1000000000000000  0.3018098229539836  0.2017454517125702
  0.9997851155202651  0.2003924184488201  0.4005360527553408
  0.9998407540516140  0.3003181504660674  0.4999999999999998
  0.1000000000000000  0.2001385311718681  0.4999999999999999
  0.1000000000000001  0.3006446704632584  0.4005782231847637
  0.9997851155202649  0.2003924184488202  0.5994639472446592
  0.9996209985952363  0.3004639241858301  0.6995360758141699
  0.1000000000000000  0.2017454517125705  0.6981901770460163
  0.1000000000000000  0.3006446704632582  0.5994217768152365
  0.9989336545843596  0.2006786025709505  0.7993213974290497
  0.9993542468364328  0.3013647633697882  0.8993542468364333
  0.1000000000000000  0.2042857088798460  0.8952234316915212
  0.1000000000000001  0.3018098229539835  0.7982545482874294
  0.9999417191619111  0.4002391446168351  0.0000000000000001
  0.9999475884080676  0.4999999999999998  0.1000524115919321
  0.0999999999999998  0.4002391446168347  0.1000582808380888
  0.0999999999999998  0.4999999999999998  0.0000000000000001
  0.9997851155202651  0.4005360527553408  0.2003924184488202
  0.9998407540516140  0.5000000000000002  0.3003181504660674
  0.1000000000000000  0.4005782231847635  0.3006446704632584
  0.0999999999999998  0.4999999999999999  0.2001385311718683
  0.9997973102354188  0.4002204814552612  0.4002204814552610
  0.9998024689152164  0.4999999999999998  0.5000000000000000
  0.1000000000000000  0.4003041732185792  0.4999999999999998
  0.1000000000000000  0.4999999999999998  0.4003041732185792
  0.9997973102354188  0.4002204814552607  0.5997795185447392
  0.9998407540516139  0.5000000000000002  0.6996818495339329
  0.1000000000000000  0.4005782231847634  0.6993553295367416
  0.0999999999999999  0.4999999999999998  0.5996958267814205
  0.9997851155202649  0.4005360527553407  0.7996075815511798
  0.9999475884080676  0.4999999999999998  0.8999475884080680
  0.0999999999999999  0.4002391446168347  0.8999417191619112
  0.1000000000000000  0.4999999999999999  0.7998614688281317
  0.9999417191619113  0.5997608553831651  0.0000000000000000
  0.9993542468364330  0.6986352366302115  0.1006457531635666
  0.0999999999999999  0.5997608553831650  0.1000582808380887
  0.1000000000000000  0.7001457764480564  0.9999999999999999
  0.9997851155202649  0.5994639472446591  0.2003924184488201
  0.9996209985952362  0.6995360758141699  0.3004639241858303
  0.0999999999999999  0.5994217768152363  0.3006446704632584
  0.1000000000000000  0.6981901770460159  0.2017454517125706
  0.9997973102354188  0.5997795185447391  0.4002204814552609
  0.9998407540516140  0.6996818495339328  0.5000000000000000
  0.1000000000000000  0.5996958267814205  0.4999999999999997
  0.1000000000000000  0.6993553295367415  0.4005782231847635
  0.9997973102354188  0.5997795185447391  0.5997795185447390
  0.9996209985952366  0.6995360758141700  0.6995360758141698
  0.0999999999999999  0.5994217768152363  0.6993553295367417
  0.1000000000000000  0.6993553295367417  0.5994217768152362
  0.9997851155202653  0.5994639472446592  0.7996075815511797
  0.9993542468364330  0.6986352366302117  0.8993542468364329
  0.1000000000000000  0.5997608553831651  0.8999417191619108
  0.1000000000000000  0.6981901770460163  0.7982545482874291
  0.9952234316915203  0.7957142911201533  0.9999999999999999
  0.0006282013285602  0.9006282013285603  0.0993717986714392
  0.0999999999999999  0.7957142911201529  0.1047765683084800
  0.1000000000000000  0.8755915652877195  0.0000000000000005
  0.9989336545843598  0.7993213974290497  0.2006786025709505
  0.9993542468364333  0.8993542468364333  0.3013647633697882
  0.1000000000000000  0.7982545482874294  0.3018098229539837
  0.1000000000000000  0.8952234316915211  0.2042857088798461
  0.9997851155202649  0.7996075815511798  0.4005360527553408
  0.9999475884080680  0.8999475884080673  0.5000000000000000
  0.1000000000000000  0.7998614688281317  0.4999999999999999
  0.1000000000000001  0.8999417191619112  0.4002391446168351
  0.9997851155202651  0.7996075815511798  0.5994639472446592
  0.9993542468364333  0.8993542468364333  0.6986352366302115
  0.1000000000000000  0.7982545482874294  0.6981901770460164
  0.1000000000000000  0.8999417191619112  0.5997608553831651
  0.9989336545843598  0.7993213974290495  0.7993213974290495
  0.0006282013285609  0.9006282013285606  0.9006282013285606
  0.1000000000000001  0.7957142911201535  0.8952234316915201
  0.1000000000000000  0.8952234316915200  0.7957142911201532
  0.2244084347122786  0.0000000000000004  0.0000000000000006
  0.1993717986714399  0.0993717986714398  0.0993717986714396
  0.3042857088798465  0.9999999999999999  0.1047765683084795
  0.3042857088798465  0.1047765683084796  0.9999999999999998
  0.2047765683084790  0.0000000000000000  0.2042857088798462
  0.2006457531635667  0.1006457531635666  0.3013647633697883
  0.3017454517125704  0.0000000000000000  0.3018098229539837
  0.3006786025709504  0.1010663454156403  0.2006786025709505
  0.2000582808380888  0.0000000000000001  0.4002391446168351
  0.2000524115919321  0.1000524115919321  0.4999999999999999
  0.3001385311718683  0.9999999999999999  0.5000000000000000
  0.3003924184488203  0.1002148844797348  0.4005360527553408
  0.2000582808380887  0.0000000000000000  0.5997608553831651
  0.2006457531635669  0.1006457531635668  0.6986352366302121
  0.3017454517125706  0.0000000000000001  0.6981901770460163
  0.3003924184488201  0.1002148844797349  0.5994639472446596
  0.2047765683084802  0.0000000000000000  0.7957142911201531
  0.1993717986714395  0.0993717986714394  0.9006282013285604
  0.3042857088798461  0.0000000000000000  0.8952234316915207
  0.3006786025709505  0.1010663454156403  0.7993213974290497
  0.2047765683084791  0.2042857088798463  0.0000000000000000
  0.2006457531635666  0.3013647633697883  0.1006457531635667
  0.3006786025709503  0.2006786025709505  0.1010663454156403
  0.3017454517125704  0.3018098229539835  0.0000000000000000
  0.2010663454156403  0.2006786025709502  0.2006786025709505
  0.2003790014047639  0.3004639241858301  0.3004639241858301
  0.3004342140728097  0.2004342140728096  0.3006210706287981
  0.3004342140728097  0.3006210706287981  0.2004342140728098
  0.2002148844797348  0.2003924184488201  0.4005360527553409
  0.2001592459483861  0.3003181504660673  0.4999999999999999
  0.3002549242857581  0.2002549242857581  0.5000000000000000
  0.3002349920384036  0.3002596012901306  0.4002119791119445
  0.2002148844797349  0.2003924184488202  0.5994639472446592
  0.2003790014047639  0.3004639241858300  0.6995360758141698
  0.3004342140728097  0.2004342140728096  0.6993789293712019
  0.3002349920384034  0.3002596012901305  0.5997880208880555
  0.2010663454156404  0.2006786025709504  0.7993213974290497
  0.2006457531635667  0.3013647633697882  0.8993542468364333
  0.3006786025709503  0.2006786025709502  0.8989336545843595
  0.3004342140728097  0.3006210706287981  0.7995657859271903
  0.2000582808380886  0.4002391446168347  0.0000000000000000
  0.2000524115919320  0.4999999999999998  0.1000524115919321
  0.3003924184488202  0.4005360527553408  0.1002148844797349
  0.3001385311718681  0.4999999999999998  0.9999999999999999
  0.2002148844797348  0.4005360527553407  0.2003924184488203
  0.2001592459483861  0.5000000000000001  0.3003181504660674
  0.3002349920384036  0.4002119791119446  0.3002596012901306
  0.3002549242857581  0.4999999999999998  0.2002549242857582
  0.2002026897645813  0.4002204814552609  0.4002204814552607
  0.2001975310847834  0.5000000000000001  0.4999999999999997
  0.3002091764863153  0.4001329368042556  0.4999999999999997
  0.3002091764863153  0.5000000000000002  0.4001329368042557
  0.2002026897645811  0.4002204814552607  0.5997795185447391
  0.2001592459483860  0.4999999999999998  0.6996818495339329
  0.3002349920384034  0.4002119791119444  0.6997403987098693
  0.3002091764863154  0.4999999999999999  0.5998670631957442
  0.2002148844797348  0.4005360527553405  0.7996075815511797
  0.2000524115919320  0.4999999999999998  0.8999475884080674
  0.3003924184488201  0.4005360527553408  0.8997851155202653
  0.3002549242857579  0.4999999999999999  0.7997450757142419
  0.2000582808380886  0.5997608553831650  0.9999999999999999
  0.2006457531635668  0.6986352366302117  0.1006457531635668
  0.3003924184488201  0.5994639472446592  0.1002148844797350
  0.3017454517125706  0.6981901770460163  0.9999999999999999
  0.2002148844797349  0.5994639472446592  0.2003924184488203
  0.2003790014047638  0.6995360758141698  0.3004639241858302
  0.3002349920384035  0.5997880208880554  0.3002596012901306
  0.3004342140728100  0.6993789293712018  0.2004342140728098
  0.2002026897645812  0.5997795185447392  0.4002204814552608
  0.2001592459483861  0.6996818495339326  0.4999999999999997
  0.3002091764863153  0.5998670631957443  0.4999999999999997
  0.3002349920384034  0.6997403987098695  0.4002119791119444
  0.2002026897645811  0.5997795185447391  0.5997795185447391
  0.2003790014047637  0.6995360758141700  0.6995360758141699
  0.3002349920384034  0.5997880208880555  0.6997403987098694
  0.3002349920384035  0.6997403987098693  0.5997880208880554
  0.2002148844797349  0.5994639472446593  0.7996075815511795
  0.2006457531635670  0.6986352366302117  0.8993542468364327
  0.3003924184488201  0.5994639472446593  0.8997851155202647
  0.3004342140728097  0.6993789293712018  0.7995657859271905
  0.2047765683084800  0.7957142911201535  0.9999999999999998
  0.1993717986714396  0.9006282013285599  0.0993717986714392
  0.3006786025709506  0.7993213974290497  0.1010663454156403
  0.3042857088798464  0.8952234316915206  0.9999999999999999
  0.2010663454156404  0.7993213974290495  0.2006786025709505
  0.2006457531635669  0.8993542468364332  0.3013647633697883
  0.3004342140728098  0.7995657859271906  0.3006210706287983
  0.3006786025709504  0.8989336545843594  0.2006786025709504
  0.2002148844797348  0.7996075815511795  0.4005360527553405
  0.2000524115919321  0.8999475884080679  0.4999999999999998
  0.3002549242857580  0.7997450757142419  0.4999999999999997
  0.3003924184488203  0.8997851155202649  0.4005360527553408
  0.2002148844797348  0.7996075815511798  0.5994639472446592
  0.2006457531635670  0.8993542468364332  0.6986352366302119
  0.3004342140728098  0.7995657859271905  0.6993789293712019
  0.3003924184488204  0.8997851155202649  0.5994639472446591
  0.2010663454156404  0.7993213974290498  0.7993213974290501
  0.1993717986714390  0.9006282013285609  0.9006282013285609
  0.3006786025709503  0.7993213974290497  0.8989336545843589
  0.3006786025709503  0.8989336545843594  0.7993213974290497
  0.3998542235519435  0.0000000000000000  0.0000000000000000
  0.4013647633697882  0.1006457531635667  0.1006457531635667
  0.5002391446168351  0.0000000000000000  0.1000582808380887
  0.5002391446168351  0.1000582808380887  0.0000000000000001
  0.4018098229539837  0.0000000000000001  0.2017454517125706
  0.4004639241858302  0.1003790014047638  0.3004639241858302
  0.5005782231847637  0.0000000000000000  0.3006446704632584
  0.5005360527553407  0.1002148844797350  0.2003924184488203
  0.4006446704632586  0.9999999999999998  0.4005782231847635
  0.4003181504660674  0.1001592459483862  0.4999999999999999
  0.5003041732185791  0.0000000000000000  0.4999999999999996
  0.5002204814552607  0.1002026897645812  0.4002204814552607
  0.4006446704632583  0.0000000000000000  0.5994217768152367
  0.4004639241858300  0.1003790014047638  0.6995360758141698
  0.5005782231847634  0.0000000000000000  0.6993553295367416
  0.5002204814552609  0.1002026897645811  0.5997795185447392
  0.4018098229539834  0.0000000000000000  0.7982545482874295
  0.4013647633697882  0.1006457531635667  0.8993542468364333
  0.5002391446168349  0.0000000000000000  0.8999417191619112
  0.5005360527553406  0.1002148844797349  0.7996075815511797
  0.4018098229539837  0.2017454517125704  0.0000000000000000
  0.4004639241858302  0.3004639241858301  0.1003790014047638
  0.5005360527553409  0.2003924184488201  0.1002148844797349
  0.5005782231847636  0.3006446704632583  0.9999999999999999
  0.4006210706287982  0.2004342140728095  0.2004342140728099
  0.4002382536866642  0.3002382536866643  0.3002382536866644
  0.5002119791119447  0.2002349920384036  0.3002596012901305
  0.5002119791119446  0.3002596012901305  0.2002349920384037
  0.4002596012901307  0.2002349920384036  0.4002119791119444
  0.4001850444088815  0.3001850444088812  0.4999999999999996
  0.5001329368042559  0.2002091764863154  0.4999999999999997
  0.5001133873914081  0.3001805952092768  0.4001133873914079
  0.4002596012901307  0.2002349920384035  0.5997880208880555
  0.4002382536866641  0.3002382536866643  0.6997617463133357
  0.5002119791119444  0.2002349920384035  0.6997403987098693
  0.5001133873914079  0.3001805952092769  0.5998866126085919
  0.4006210706287981  0.2004342140728095  0.7995657859271903
  0.4004639241858300  0.3004639241858300  0.8996209985952360
  0.5005360527553409  0.2003924184488200  0.8997851155202653
  0.5002119791119445  0.3002596012901306  0.7997650079615966
  0.4006446704632584  0.4005782231847635  0.9999999999999999
  0.4003181504660672  0.5000000000000001  0.1001592459483861
  0.5002204814552609  0.4002204814552609  0.1002026897645812
  0.5003041732185792  0.4999999999999999  0.0000000000000000
  0.4002596012901304  0.4002119791119447  0.2002349920384037
  0.4001850444088812  0.4999999999999998  0.3001850444088813
  0.5001133873914078  0.4001133873914079  0.3001805952092770
  0.5001329368042554  0.5000000000000000  0.2002091764863155
  0.4001805952092770  0.4001133873914081  0.4001133873914081
  0.4001679825749371  0.4999999999999999  0.4999999999999999
  0.5000987970068653  0.4000987970068650  0.4999999999999997
  0.5000987970068650  0.4999999999999997  0.4000987970068650
  0.4001805952092770  0.4001133873914078  0.5998866126085920
  0.4001850444088813  0.5000000000000001  0.6998149555911186
  0.5001133873914081  0.4001133873914079  0.6998194047907230
  0.5000987970068652  0.4999999999999998  0.5999012029931348
  0.4002596012901307  0.4002119791119447  0.7997650079615963
  0.4003181504660672  0.4999999999999999  0.8998407540516137
  0.5002204814552610  0.4002204814552610  0.8997973102354186
  0.5001329368042557  0.4999999999999999  0.7997908235136845
  0.4006446704632582  0.5994217768152365  0.9999999999999999
  0.4004639241858303  0.6995360758141700  0.1003790014047639
  0.5002204814552609  0.5997795185447391  0.1002026897645811
  0.5005782231847636  0.6993553295367417  0.9999999999999998
  0.4002596012901307  0.5997880208880555  0.2002349920384036
  0.4002382536866641  0.6997617463133357  0.3002382536866643
  0.5001133873914078  0.5998866126085920  0.3001805952092770
  0.5002119791119443  0.6997403987098695  0.2002349920384036
  0.4001805952092768  0.5998866126085922  0.4001133873914079
  0.4001850444088811  0.6998149555911188  0.4999999999999999
  0.5000987970068650  0.5999012029931348  0.4999999999999999
  0.5001133873914079  0.6998194047907231  0.4001133873914079
  0.4001805952092770  0.5998866126085920  0.5998866126085920
  0.4002382536866641  0.6997617463133357  0.6997617463133358
  0.5001133873914080  0.5998866126085921  0.6998194047907230
  0.5001133873914079  0.6998194047907229  0.5998866126085921
  0.4002596012901306  0.5997880208880556  0.7997650079615961
  0.4004639241858300  0.6995360758141700  0.8996209985952354
  0.5002204814552610  0.5997795185447392  0.8997973102354186
  0.5002119791119447  0.6997403987098694  0.7997650079615961
  0.4018098229539839  0.7982545482874298  0.9999999999999999
  0.4013647633697883  0.8993542468364335  0.1006457531635667
  0.5005360527553409  0.7996075815511798  0.1002148844797347
  0.5002391446168351  0.8999417191619112  0.9999999999999999
  0.4006210706287981  0.7995657859271906  0.2004342140728097
  0.4004639241858300  0.8996209985952363  0.3004639241858302
  0.5002119791119443  0.7997650079615964  0.3002596012901305
  0.5005360527553409  0.8997851155202653  0.2003924184488202
  0.4002596012901307  0.7997650079615964  0.4002119791119445
  0.4003181504660673  0.8998407540516133  0.4999999999999998
  0.5001329368042557  0.7997908235136848  0.5000000000000000
  0.5002204814552605  0.8997973102354189  0.4002204814552610
  0.4002596012901307  0.7997650079615963  0.5997880208880554
  0.4004639241858300  0.8996209985952359  0.6995360758141700
  0.5002119791119444  0.7997650079615963  0.6997403987098693
  0.5002204814552607  0.8997973102354189  0.5997795185447390
  0.4006210706287982  0.7995657859271905  0.7995657859271905
  0.4013647633697882  0.8993542468364332  0.8993542468364331
  0.5005360527553410  0.7996075815511797  0.8997851155202650
  0.5005360527553407  0.8997851155202653  0.7996075815511797
  0.5999999999999999  0.0000000000000001  0.0000000000000001
  0.6000000000000001  0.1000524115919321  0.1000524115919322
  0.6997608553831649  0.0000000000000000  0.1000582808380887
  0.6997608553831650  0.1000582808380887  0.0000000000000000
  0.6000000000000001  0.0000000000000000  0.2001385311718681
  0.6000000000000000  0.1001592459483861  0.3003181504660674
  0.6994217768152362  0.0000000000000000  0.3006446704632583
  0.6994639472446593  0.1002148844797349  0.2003924184488202
  0.5999999999999999  0.0000000000000000  0.4003041732185792
  0.5999999999999998  0.1001975310847833  0.4999999999999998
  0.6996958267814206  0.9999999999999999  0.4999999999999997
  0.6997795185447389  0.1002026897645811  0.4002204814552608
  0.5999999999999998  0.0000000000000000  0.5996958267814205
  0.5999999999999998  0.1001592459483860  0.6996818495339329
  0.6994217768152363  0.0000000000000000  0.6993553295367417
  0.6997795185447389  0.1002026897645810  0.5997795185447391
  0.5999999999999999  0.0000000000000000  0.7998614688281318
  0.5999999999999999  0.1000524115919321  0.8999475884080674
  0.6997608553831649  0.0000000000000000  0.8999417191619112
  0.6994639472446593  0.1002148844797349  0.7996075815511797
  0.6000000000000002  0.2001385311718680  0.9999999999999999
  0.5999999999999999  0.3003181504660674  0.1001592459483861
  0.6994639472446594  0.2003924184488202  0.1002148844797349
  0.6994217768152362  0.3006446704632583  0.9999999999999998
  0.6000000000000001  0.2002549242857580  0.2002549242857581
  0.6000000000000001  0.3001850444088814  0.3001850444088813
  0.6997880208880553  0.2002349920384035  0.3002596012901305
  0.6997880208880553  0.3002596012901305  0.2002349920384037
  0.5999999999999998  0.2002091764863152  0.4001329368042558
  0.5999999999999996  0.3001679825749373  0.4999999999999998
  0.6998670631957442  0.2002091764863154  0.4999999999999997
  0.6998866126085920  0.3001805952092769  0.4001133873914079
  0.5999999999999996  0.2002091764863154  0.5998670631957442
  0.6000000000000002  0.3001850444088814  0.6998149555911185
  0.6997880208880556  0.2002349920384036  0.6997403987098694
  0.6998866126085921  0.3001805952092769  0.5998866126085921
  0.6000000000000001  0.2002549242857581  0.7997450757142421
  0.6000000000000000  0.3003181504660674  0.8998407540516137
  0.6994639472446594  0.2003924184488202  0.8997851155202651
  0.6997880208880554  0.3002596012901306  0.7997650079615961
  0.6000000000000001  0.4003041732185791  0.9999999999999999
  0.6000000000000001  0.4999999999999997  0.1001975310847833
  0.6997795185447390  0.4002204814552609  0.1002026897645813
  0.6996958267814208  0.4999999999999997  0.9999999999999999
  0.6000000000000001  0.4001329368042559  0.2002091764863155
  0.6000000000000000  0.4999999999999998  0.3001679825749373
  0.6998866126085918  0.4001133873914079  0.3001805952092769
  0.6998670631957443  0.4999999999999999  0.2002091764863156
  0.5999999999999998  0.4000987970068650  0.4000987970068650
  0.5999999999999996  0.4999999999999998  0.4999999999999997
  0.6999012029931349  0.4000987970068651  0.4999999999999998
  0.6999012029931347  0.4999999999999997  0.4000987970068648
  0.5999999999999998  0.4000987970068650  0.5999012029931348
  0.5999999999999998  0.5000000000000001  0.6998320174250631
  0.6998866126085921  0.4001133873914079  0.6998194047907232
  0.6999012029931347  0.5000000000000001  0.5999012029931350
  0.6000000000000001  0.4001329368042558  0.7997908235136846
  0.6000000000000001  0.4999999999999999  0.8998024689152162
  0.6997795185447391  0.4002204814552609  0.8997973102354186
  0.6998670631957442  0.4999999999999998  0.7997908235136848
  0.5999999999999998  0.5996958267814205  0.9999999999999998
  0.5999999999999996  0.6996818495339326  0.1001592459483860
  0.6997795185447390  0.5997795185447391  0.1002026897645812
  0.6994217768152362  0.6993553295367417  0.9999999999999999
  0.5999999999999998  0.5998670631957441  0.2002091764863156
  0.5999999999999998  0.6998149555911186  0.3001850444088813
  0.6998866126085921  0.5998866126085918  0.3001805952092769
  0.6997880208880554  0.6997403987098695  0.2002349920384036
  0.6000000000000001  0.5999012029931349  0.4000987970068651
  0.5999999999999996  0.6998320174250632  0.4999999999999999
  0.6999012029931347  0.5999012029931348  0.4999999999999998
  0.6998866126085919  0.6998194047907232  0.4001133873914079
  0.5999999999999999  0.5999012029931349  0.5999012029931350
  0.5999999999999999  0.6998149555911185  0.6998149555911184
  0.6998866126085921  0.5998866126085921  0.6998194047907231
  0.6998866126085919  0.6998194047907234  0.5998866126085919
  0.5999999999999999  0.5998670631957443  0.7997908235136848
  0.5999999999999998  0.6996818495339326  0.8998407540516139
  0.6997795185447391  0.5997795185447392  0.8997973102354186
  0.6997880208880553  0.6997403987098694  0.7997650079615966
  0.5999999999999998  0.7998614688281320  0.0000000000000000
  0.5999999999999998  0.8999475884080679  0.1000524115919320
  0.6994639472446591  0.7996075815511798  0.1002148844797348
  0.6997608553831648  0.8999417191619110  0.0000000000000000
  0.5999999999999998  0.7997450757142421  0.2002549242857579
  0.5999999999999999  0.8998407540516133  0.3003181504660675
  0.6997880208880553  0.7997650079615961  0.3002596012901306
  0.6994639472446591  0.8997851155202652  0.2003924184488202
  0.5999999999999998  0.7997908235136846  0.4001329368042559
  0.6000000000000000  0.8998024689152161  0.4999999999999998
  0.6998670631957442  0.7997908235136846  0.4999999999999998
  0.6997795185447389  0.8997973102354188  0.4002204814552609
  0.5999999999999996  0.7997908235136848  0.5998670631957440
  0.5999999999999999  0.8998407540516133  0.6996818495339328
  0.6997880208880553  0.7997650079615963  0.6997403987098693
  0.6997795185447390  0.8997973102354188  0.5997795185447389
  0.5999999999999999  0.7997450757142416  0.7997450757142421
  0.6000000000000001  0.8999475884080679  0.8999475884080678
  0.6994639472446594  0.7996075815511795  0.8997851155202653
  0.6994639472446593  0.8997851155202652  0.7996075815511798
  0.8001457764480566  0.0000000000000001  0.0000000000000000
  0.7986352366302120  0.1006457531635667  0.1006457531635667
  0.8957142911201533  0.9999999999999999  0.1047765683084796
  0.8957142911201531  0.1047765683084797  0.9999999999999999
  0.7981901770460159  0.0000000000000000  0.2017454517125705
  0.7995360758141696  0.1003790014047637  0.3004639241858302
  0.8982545482874296  0.0000000000000000  0.3018098229539835
  0.8993213974290498  0.1010663454156402  0.2006786025709504
  0.7993553295367412  0.9999999999999999  0.4005782231847634
  0.7996818495339326  0.1001592459483861  0.4999999999999998
  0.8998614688281321  0.0000000000000000  0.4999999999999998
  0.8996075815511797  0.1002148844797348  0.4005360527553407
  0.7993553295367414  0.0000000000000000  0.5994217768152363
  0.7995360758141700  0.1003790014047637  0.6995360758141698
  0.8982545482874296  0.0000000000000000  0.6981901770460163
  0.8996075815511797  0.1002148844797348  0.5994639472446593
  0.7981901770460164  0.0000000000000000  0.7982545482874295
  0.7986352366302117  0.1006457531635668  0.8993542468364333
  0.8957142911201533  0.0000000000000000  0.8952234316915207
  0.8993213974290496  0.1010663454156403  0.7993213974290495
  0.7981901770460164  0.2017454517125704  0.0000000000000000
  0.7995360758141696  0.3004639241858302  0.1003790014047639
  0.8993213974290498  0.2006786025709504  0.1010663454156402
  0.8982545482874292  0.3018098229539835  0.9999999999999999
  0.7993789293712018  0.2004342140728095  0.2004342140728098
  0.7997617463133353  0.3002382536866645  0.3002382536866642
  0.8995657859271905  0.2004342140728095  0.3006210706287981
  0.8995657859271905  0.3006210706287981  0.2004342140728097
  0.7997403987098692  0.2002349920384035  0.4002119791119444
  0.7998149555911185  0.3001850444088814  0.4999999999999998
  0.8997450757142418  0.2002549242857581  0.4999999999999999
  0.8997650079615966  0.3002596012901305  0.4002119791119446
  0.7997403987098693  0.2002349920384036  0.5997880208880555
  0.7997617463133353  0.3002382536866643  0.6997617463133359
  0.8995657859271903  0.2004342140728098  0.6993789293712018
  0.8997650079615966  0.3002596012901305  0.5997880208880554
  0.7993789293712020  0.2004342140728095  0.7995657859271905
  0.7995360758141697  0.3004639241858300  0.8996209985952357
  0.8993213974290499  0.2006786025709504  0.8989336545843595
  0.8995657859271906  0.3006210706287981  0.7995657859271907
  0.7993553295367414  0.4005782231847637  0.9999999999999998
  0.7996818495339326  0.4999999999999998  0.1001592459483861
  0.8996075815511798  0.4005360527553407  0.1002148844797348
  0.8998614688281320  0.4999999999999999  0.9999999999999999
  0.7997403987098696  0.4002119791119447  0.2002349920384037
  0.7998149555911181  0.4999999999999998  0.3001850444088813
  0.8997650079615966  0.4002119791119448  0.3002596012901306
  0.8997450757142418  0.4999999999999998  0.2002549242857580
  0.7998194047907232  0.4001133873914082  0.4001133873914079
  0.7998320174250628  0.4999999999999999  0.4999999999999997
  0.8997908235136846  0.4001329368042557  0.4999999999999998
  0.8997908235136844  0.5000000000000002  0.4001329368042558
  0.7998194047907229  0.4001133873914077  0.5998866126085921
  0.7998149555911183  0.4999999999999999  0.6998149555911186
  0.8997650079615964  0.4002119791119444  0.6997403987098693
  0.8997908235136846  0.5000000000000001  0.5998670631957443
  0.7997403987098693  0.4002119791119447  0.7997650079615966
  0.7996818495339323  0.4999999999999999  0.8998407540516136
  0.8996075815511797  0.4005360527553408  0.8997851155202653
  0.8997450757142416  0.5000000000000001  0.7997450757142422
  0.7993553295367415  0.5994217768152363  0.9999999999999999
  0.7995360758141701  0.6995360758141700  0.1003790014047639
  0.8996075815511797  0.5994639472446590  0.1002148844797349
  0.8982545482874292  0.6981901770460163  0.0000000000000000
  0.7997403987098696  0.5997880208880553  0.2002349920384036
  0.7997617463133353  0.6997617463133357  0.3002382536866643
  0.8997650079615966  0.5997880208880552  0.3002596012901305
  0.8995657859271905  0.6993789293712019  0.2004342140728098
  0.7998194047907231  0.5998866126085919  0.4001133873914077
  0.7998149555911183  0.6998149555911184  0.4999999999999998
  0.8997908235136846  0.5998670631957443  0.4999999999999999
  0.8997650079615963  0.6997403987098693  0.4002119791119446
  0.7998194047907232  0.5998866126085920  0.5998866126085920
  0.7997617463133353  0.6997617463133358  0.6997617463133357
  0.8997650079615969  0.5997880208880554  0.6997403987098694
  0.8997650079615966  0.6997403987098694  0.5997880208880552
  0.7997403987098693  0.5997880208880555  0.7997650079615961
  0.7995360758141700  0.6995360758141701  0.8996209985952360
  0.8996075815511795  0.5994639472446592  0.8997851155202651
  0.8995657859271906  0.6993789293712019  0.7995657859271903
  0.7981901770460159  0.7982545482874294  0.0000000000000000
  0.7986352366302116  0.8993542468364335  0.1006457531635668
  0.8993213974290498  0.7993213974290497  0.1010663454156403
  0.8957142911201535  0.8952234316915205  0.9999999999999999
  0.7993789293712020  0.7995657859271905  0.2004342140728098
  0.7995360758141700  0.8996209985952359  0.3004639241858302
  0.8995657859271905  0.7995657859271906  0.3006210706287981