Al 
 1.0000000000000000
     8.2561776208268505   -0.0000000000000084    0.0000000000000050
    -0.0000000000000084    8.2561776208263620    0.0000000000000038
     0.0000000000000050    0.0000000000000038    8.2561776208264099
  33
Cartesian
  7.7649216953369793  0.0000000000002655  0.0000000000002771
  0.0213118557777655  2.0427325494290316  2.0427325494290440
  2.0640444052068987  0.0000000000002720  2.5553003306959918
  2.0640444052068943  2.5553003306959718  0.0000000000002752
  8.1299127252305698  0.0000000000001793  4.1280888104131916
  0.0213118557777896  2.0427325494290107  6.2134450713971932
  2.0640444052069009  0.0000000000002738  5.7008772901299833
  2.0640444052068045  2.1903093008025096  4.1280888104131908
  8.1299127252305645  4.1280888104131517  0.0000000000001926
  0.0213118557777822  6.2134450713971585  2.0427325494290223
  2.0640444052068010  4.1280888104131614  2.1903093008025261
  2.0640444052068916  5.7008772901299443  0.0000000000002773
  8.2130314515661755  4.1280888104131552  4.1280888104131934
  0.0213118557778062  6.2134450713971843  6.2134450713972180
  2.0640444052068037  4.1280888104131606  6.0658683200235259
  2.0640444052068014  6.0658683200234860  4.1280888104131908
  4.6193447359028559  0.0000000000002669  0.0000000000002745
  4.1067769546358077  2.0427325494290192  2.0427325494290374
  6.1921332156200251  0.0000000000001797  2.1903093008025429
  6.1921332156200215  2.1903093008025194  0.0000000000001893
  4.2543537060093684  0.0000000000001828  4.1280888104131916
  4.1067769546357882  2.0427325494289956  6.2134450713972074
  6.1921332156200277  0.0000000000001808  6.0658683200235108
  6.1921332156200375  2.1071905744670052  4.1280888104131943
  4.2543537060093621  4.1280888104131588  0.0000000000001885
  4.1067769546357829  6.2134450713971630  2.0427325494290161
  6.1921332156200348  4.1280888104131614  2.1071905744670270
  6.1921332156200179  6.0658683200234638  0.0000000000001915
  4.1712349796738515  4.1280888104131606  4.1280888104131943
  4.1067769546357633  6.2134450713971878  6.2134450713972287
  6.1921332156200348  4.1280888104131588  6.1489870463591192
  6.1921332156200304  6.1489870463590712  4.1280888104131934
  2.0640444052071936  0.0000000000004695  0.0000000000004733
