Al 
 1.0000000000000000
     8.2561776208268505   -0.0000000000000084    0.0000000000000050
    -0.0000000000000084    8.2561776208263620    0.0000000000000038
     0.0000000000000050    0.0000000000000038    8.2561776208264099
  33
Direct
  0.9404983821749863  0.0000000000000331  0.0000000000000330
  0.0025813223451014  0.2474186776549235  0.2474186776549235
  0.2500000000000224  0.0000000000000331  0.3095016178249585
  0.2500000000000223  0.3095016178249583  0.0000000000000330
  0.9847066158947733  0.0000000000000225  0.4999999999999977
  0.0025813223451040  0.2474186776549207  0.7525813223450553
  0.2500000000000224  0.0000000000000331  0.6904983821749886
  0.2500000000000111  0.2652933841051837  0.4999999999999979
  0.9847066158947733  0.4999999999999974  0.0000000000000225
  0.0025813223451039  0.7525813223450555  0.2474186776549206
  0.2500000000000110  0.4999999999999977  0.2652933841051838
  0.2500000000000224  0.6904983821749882  0.0000000000000331
  0.9947740744879527  0.4999999999999976  0.4999999999999977
  0.0025813223451065  0.7525813223450584  0.7525813223450580
  0.2500000000000111  0.4999999999999974  0.7347066158947720
  0.2500000000000112  0.7347066158947719  0.4999999999999977
  0.5595016178249606  0.0000000000000329  0.0000000000000329
  0.4974186776549168  0.2474186776549225  0.2474186776549224
  0.7499999999999862  0.0000000000000224  0.2652933841051857
  0.7499999999999862  0.2652933841051856  0.0000000000000224
  0.5152933841051854  0.0000000000000224  0.4999999999999981
  0.4974186776549141  0.2474186776549194  0.7525813223450567
  0.7499999999999862  0.0000000000000223  0.7347066158947703
  0.7499999999999878  0.2552259255120168  0.4999999999999982
  0.5152933841051855  0.4999999999999978  0.0000000000000223
  0.4974186776549143  0.7525813223450566  0.2474186776549196
  0.7499999999999880  0.4999999999999983  0.2552259255120168
  0.7499999999999862  0.7347066158947700  0.0000000000000224
  0.5052259255120176  0.4999999999999978  0.4999999999999982
  0.4974186776549116  0.7525813223450594  0.7525813223450590
  0.7499999999999877  0.4999999999999977  0.7447740744879499
  0.7499999999999875  0.7447740744879496  0.4999999999999978
  0.2500000000000583  0.0000000000000571  0.0000000000000572
