&CONTROL
  calculation = 'scf'
  outdir = './out/'
  prefix = 'aiida'
  pseudo_dir = '/users/aglensk/Dropbox/Albert/scripts/dotfiles/scripts/potentials/quantum_espresso/pseudo_SSSPefV1.1_alalloy'
  tprnfor = .true.             	! calculate the pressure of the cell
  tstress = .true.
  verbosity = 'high'
  wf_collect = .true.
  etot_conv_thr = 2.5d-4    ! EDIFFG positive atomic units
  forc_conv_thr = 2.0d-5
/
&SYSTEM
  degauss =   4.4100000000d-02  ! SIGMA in Rydberg  so, 0.60001101eV
  ecutrho = 400                 ! AUGMENTATION charges
  ecutwfc =  40                 ! ENCUT in Rydberg, so 544eV
  ibrav = 0                     ! no symmetry
   nat              = 256
   ntyp             = 2
  occupations = 'smearing'      ! using smearing 
  smearing = 'mp'               ! methfessel paxton
  nosym= .true. 		! no symmetry
/
&ELECTRONS
  conv_thr =   1.0000000000d-12   	! EDIFF
  mixing_beta =   4.0000000000d-01      ! MIXING
  mixing_mode = 'local-TF'                 ! MIXING
/
&IONS
  !press_conv_thr = 0.05                 ! just for volume relaxations
/
ATOMIC_SPECIES
Si 28.085 Si.pbe-n-rrkjus_psl.1.0.0.UPF
Al 26.9815385 Al.pbe-n-kjpaw_psl.1.0.0.UPF

K_POINTS automatic
5 5 5 0 0 0
CELL_PARAMETERS angstrom
16.22800000000970 0.00000000000000 0.00000000000000
0.00000000000000 16.22800000000970 0.00000000000000
0.00000000000000 0.00000000000000 16.22800000000970

ATOMIC_POSITIONS angstrom
Si 0.0000000000 0.0000000000 0.0000000000 
Al 2.0285000000 2.0285000000 0.0000000000 
Al 2.0285000000 0.0000000000 2.0285000000 
Al 0.0000000000 2.0285000000 2.0285000000 
Al 0.0000000000 0.0000000000 4.0570000000 
Al 2.0285000000 2.0285000000 4.0570000000 
Al 2.0285000000 0.0000000000 6.0855000000 
Al 0.0000000000 2.0285000000 6.0855000000 
Al 0.0000000000 0.0000000000 8.1140000000 
Al 2.0285000000 2.0285000000 8.1140000000 
Al 2.0285000000 0.0000000000 10.1425000000 
Al 0.0000000000 2.0285000000 10.1425000000 
Al 0.0000000000 0.0000000000 12.1710000000 
Al 2.0285000000 2.0285000000 12.1710000000 
Al 2.0285000000 0.0000000000 14.1995000000 
Al 0.0000000000 2.0285000000 14.1995000000 
Al 0.0000000000 4.0570000000 0.0000000000 
Al 2.0285000000 6.0855000000 0.0000000000 
Al 2.0285000000 4.0570000000 2.0285000000 
Al 0.0000000000 6.0855000000 2.0285000000 
Al 0.0000000000 4.0570000000 4.0570000000 
Al 2.0285000000 6.0855000000 4.0570000000 
Al 2.0285000000 4.0570000000 6.0855000000 
Al 0.0000000000 6.0855000000 6.0855000000 
Al 0.0000000000 4.0570000000 8.1140000000 
Al 2.0285000000 6.0855000000 8.1140000000 
Al 2.0285000000 4.0570000000 10.1425000000 
Al 0.0000000000 6.0855000000 10.1425000000 
Al 0.0000000000 4.0570000000 12.1710000000 
Al 2.0285000000 6.0855000000 12.1710000000 
Al 2.0285000000 4.0570000000 14.1995000000 
Al 0.0000000000 6.0855000000 14.1995000000 
Al 0.0000000000 8.1140000000 0.0000000000 
Al 2.0285000000 10.1425000000 0.0000000000 
Al 2.0285000000 8.1140000000 2.0285000000 
Al 0.0000000000 10.1425000000 2.0285000000 
Al 0.0000000000 8.1140000000 4.0570000000 
Al 2.0285000000 10.1425000000 4.0570000000 
Al 2.0285000000 8.1140000000 6.0855000000 
Al 0.0000000000 10.1425000000 6.0855000000 
Al 0.0000000000 8.1140000000 8.1140000000 
Al 2.0285000000 10.1425000000 8.1140000000 
Al 2.0285000000 8.1140000000 10.1425000000 
Al 0.0000000000 10.1425000000 10.1425000000 
Al 0.0000000000 8.1140000000 12.1710000000 
Al 2.0285000000 10.1425000000 12.1710000000 
Al 2.0285000000 8.1140000000 14.1995000000 
Al 0.0000000000 10.1425000000 14.1995000000 
Al 0.0000000000 12.1710000000 0.0000000000 
Al 2.0285000000 14.1995000000 0.0000000000 
Al 2.0285000000 12.1710000000 2.0285000000 
Al 0.0000000000 14.1995000000 2.0285000000 
Al 0.0000000000 12.1710000000 4.0570000000 
Al 2.0285000000 14.1995000000 4.0570000000 
Al 2.0285000000 12.1710000000 6.0855000000 
Al 0.0000000000 14.1995000000 6.0855000000 
Al 0.0000000000 12.1710000000 8.1140000000 
Al 2.0285000000 14.1995000000 8.1140000000 
Al 2.0285000000 12.1710000000 10.1425000000 
Al 0.0000000000 14.1995000000 10.1425000000 
Al 0.0000000000 12.1710000000 12.1710000000 
Al 2.0285000000 14.1995000000 12.1710000000 
Al 2.0285000000 12.1710000000 14.1995000000 
Al 0.0000000000 14.1995000000 14.1995000000 
Al 4.0570000000 0.0000000000 0.0000000000 
Al 6.0855000000 2.0285000000 0.0000000000 
Al 6.0855000000 0.0000000000 2.0285000000 
Al 4.0570000000 2.0285000000 2.0285000000 
Al 4.0570000000 0.0000000000 4.0570000000 
Al 6.0855000000 2.0285000000 4.0570000000 
Al 6.0855000000 0.0000000000 6.0855000000 
Al 4.0570000000 2.0285000000 6.0855000000 
Al 4.0570000000 0.0000000000 8.1140000000 
Al 6.0855000000 2.0285000000 8.1140000000 
Al 6.0855000000 0.0000000000 10.1425000000 
Al 4.0570000000 2.0285000000 10.1425000000 
Al 4.0570000000 0.0000000000 12.1710000000 
Al 6.0855000000 2.0285000000 12.1710000000 
Al 6.0855000000 0.0000000000 14.1995000000 
Al 4.0570000000 2.0285000000 14.1995000000 
Al 4.0570000000 4.0570000000 0.0000000000 
Al 6.0855000000 6.0855000000 0.0000000000 
Al 6.0855000000 4.0570000000 2.0285000000 
Al 4.0570000000 6.0855000000 2.0285000000 
Al 4.0570000000 4.0570000000 4.0570000000 
Al 6.0855000000 6.0855000000 4.0570000000 
Al 6.0855000000 4.0570000000 6.0855000000 
Al 4.0570000000 6.0855000000 6.0855000000 
Al 4.0570000000 4.0570000000 8.1140000000 
Al 6.0855000000 6.0855000000 8.1140000000 
Al 6.0855000000 4.0570000000 10.1425000000 
Al 4.0570000000 6.0855000000 10.1425000000 
Al 4.0570000000 4.0570000000 12.1710000000 
Al 6.0855000000 6.0855000000 12.1710000000 
Al 6.0855000000 4.0570000000 14.1995000000 
Al 4.0570000000 6.0855000000 14.1995000000 
Al 4.0570000000 8.1140000000 0.0000000000 
Al 6.0855000000 10.1425000000 0.0000000000 
Al 6.0855000000 8.1140000000 2.0285000000 
Al 4.0570000000 10.1425000000 2.0285000000 
Al 4.0570000000 8.1140000000 4.0570000000 
Al 6.0855000000 10.1425000000 4.0570000000 
Al 6.0855000000 8.1140000000 6.0855000000 
Al 4.0570000000 10.1425000000 6.0855000000 
Al 4.0570000000 8.1140000000 8.1140000000 
Al 6.0855000000 10.1425000000 8.1140000000 
Al 6.0855000000 8.1140000000 10.1425000000 
Al 4.0570000000 10.1425000000 10.1425000000 
Al 4.0570000000 8.1140000000 12.1710000000 
Al 6.0855000000 10.1425000000 12.1710000000 
Al 6.0855000000 8.1140000000 14.1995000000 
Al 4.0570000000 10.1425000000 14.1995000000 
Al 4.0570000000 12.1710000000 0.0000000000 
Al 6.0855000000 14.1995000000 0.0000000000 
Al 6.0855000000 12.1710000000 2.0285000000 
Al 4.0570000000 14.1995000000 2.0285000000 
Al 4.0570000000 12.1710000000 4.0570000000 
Al 6.0855000000 14.1995000000 4.0570000000 
Al 6.0855000000 12.1710000000 6.0855000000 
Al 4.0570000000 14.1995000000 6.0855000000 
Al 4.0570000000 12.1710000000 8.1140000000 
Al 6.0855000000 14.1995000000 8.1140000000 
Al 6.0855000000 12.1710000000 10.1425000000 
Al 4.0570000000 14.1995000000 10.1425000000 
Al 4.0570000000 12.1710000000 12.1710000000 
Al 6.0855000000 14.1995000000 12.1710000000 
Al 6.0855000000 12.1710000000 14.1995000000 
Al 4.0570000000 14.1995000000 14.1995000000 
Al 8.1140000000 0.0000000000 0.0000000000 
Al 10.1425000000 2.0285000000 0.0000000000 
Al 10.1425000000 0.0000000000 2.0285000000 
Al 8.1140000000 2.0285000000 2.0285000000 
Al 8.1140000000 0.0000000000 4.0570000000 
Al 10.1425000000 2.0285000000 4.0570000000 
Al 10.1425000000 0.0000000000 6.0855000000 
Al 8.1140000000 2.0285000000 6.0855000000 
Al 8.1140000000 0.0000000000 8.1140000000 
Al 10.1425000000 2.0285000000 8.1140000000 
Al 10.1425000000 0.0000000000 10.1425000000 
Al 8.1140000000 2.0285000000 10.1425000000 
Al 8.1140000000 0.0000000000 12.1710000000 
Al 10.1425000000 2.0285000000 12.1710000000 
Al 10.1425000000 0.0000000000 14.1995000000 
Al 8.1140000000 2.0285000000 14.1995000000 
Al 8.1140000000 4.0570000000 0.0000000000 
Al 10.1425000000 6.0855000000 0.0000000000 
Al 10.1425000000 4.0570000000 2.0285000000 
Al 8.1140000000 6.0855000000 2.0285000000 
Al 8.1140000000 4.0570000000 4.0570000000 
Al 10.1425000000 6.0855000000 4.0570000000 
Al 10.1425000000 4.0570000000 6.0855000000 
Al 8.1140000000 6.0855000000 6.0855000000 
Al 8.1140000000 4.0570000000 8.1140000000 
Al 10.1425000000 6.0855000000 8.1140000000 
Al 10.1425000000 4.0570000000 10.1425000000 
Al 8.1140000000 6.0855000000 10.1425000000 
Al 8.1140000000 4.0570000000 12.1710000000 
Al 10.1425000000 6.0855000000 12.1710000000 
Al 10.1425000000 4.0570000000 14.1995000000 
Al 8.1140000000 6.0855000000 14.1995000000 
Al 8.1140000000 8.1140000000 0.0000000000 
Al 10.1425000000 10.1425000000 0.0000000000 
Al 10.1425000000 8.1140000000 2.0285000000 
Al 8.1140000000 10.1425000000 2.0285000000 
Al 8.1140000000 8.1140000000 4.0570000000 
Al 10.1425000000 10.1425000000 4.0570000000 
Al 10.1425000000 8.1140000000 6.0855000000 
Al 8.1140000000 10.1425000000 6.0855000000 
Al 8.1140000000 8.1140000000 8.1140000000 
Al 10.1425000000 10.1425000000 8.1140000000 
Al 10.1425000000 8.1140000000 10.1425000000 
Al 8.1140000000 10.1425000000 10.1425000000 
Al 8.1140000000 8.1140000000 12.1710000000 
Al 10.1425000000 10.1425000000 12.1710000000 
Al 10.1425000000 8.1140000000 14.1995000000 
Al 8.1140000000 10.1425000000 14.1995000000 
Al 8.1140000000 12.1710000000 0.0000000000 
Al 10.1425000000 14.1995000000 0.0000000000 
Al 10.1425000000 12.1710000000 2.0285000000 
Al 8.1140000000 14.1995000000 2.0285000000 
Al 8.1140000000 12.1710000000 4.0570000000 
Al 10.1425000000 14.1995000000 4.0570000000 
Al 10.1425000000 12.1710000000 6.0855000000 
Al 8.1140000000 14.1995000000 6.0855000000 
Al 8.1140000000 12.1710000000 8.1140000000 
Al 10.1425000000 14.1995000000 8.1140000000 
Al 10.1425000000 12.1710000000 10.1425000000 
Al 8.1140000000 14.1995000000 10.1425000000 
Al 8.1140000000 12.1710000000 12.1710000000 
Al 10.1425000000 14.1995000000 12.1710000000 
Al 10.1425000000 12.1710000000 14.1995000000 
Al 8.1140000000 14.1995000000 14.1995000000 
Al 12.1710000000 0.0000000000 0.0000000000 
Al 14.1995000000 2.0285000000 0.0000000000 
Al 14.1995000000 0.0000000000 2.0285000000 
Al 12.1710000000 2.0285000000 2.0285000000 
Al 12.1710000000 0.0000000000 4.0570000000 
Al 14.1995000000 2.0285000000 4.0570000000 
Al 14.1995000000 0.0000000000 6.0855000000 
Al 12.1710000000 2.0285000000 6.0855000000 
Al 12.1710000000 0.0000000000 8.1140000000 
Al 14.1995000000 2.0285000000 8.1140000000 
Al 14.1995000000 0.0000000000 10.1425000000 
Al 12.1710000000 2.0285000000 10.1425000000 
Al 12.1710000000 0.0000000000 12.1710000000 
Al 14.1995000000 2.0285000000 12.1710000000 
Al 14.1995000000 0.0000000000 14.1995000000 
Al 12.1710000000 2.0285000000 14.1995000000 
Al 12.1710000000 4.0570000000 0.0000000000 
Al 14.1995000000 6.0855000000 0.0000000000 
Al 14.1995000000 4.0570000000 2.0285000000 
Al 12.1710000000 6.0855000000 2.0285000000 
Al 12.1710000000 4.0570000000 4.0570000000 
Al 14.1995000000 6.0855000000 4.0570000000 
Al 14.1995000000 4.0570000000 6.0855000000 
Al 12.1710000000 6.0855000000 6.0855000000 
Al 12.1710000000 4.0570000000 8.1140000000 
Al 14.1995000000 6.0855000000 8.1140000000 
Al 14.1995000000 4.0570000000 10.1425000000 
Al 12.1710000000 6.0855000000 10.1425000000 
Al 12.1710000000 4.0570000000 12.1710000000 
Al 14.1995000000 6.0855000000 12.1710000000 
Al 14.1995000000 4.0570000000 14.1995000000 
Al 12.1710000000 6.0855000000 14.1995000000 
Al 12.1710000000 8.1140000000 0.0000000000 
Al 14.1995000000 10.1425000000 0.0000000000 
Al 14.1995000000 8.1140000000 2.0285000000 
Al 12.1710000000 10.1425000000 2.0285000000 
Al 12.1710000000 8.1140000000 4.0570000000 
Al 14.1995000000 10.1425000000 4.0570000000 
Al 14.1995000000 8.1140000000 6.0855000000 
Al 12.1710000000 10.1425000000 6.0855000000 
Al 12.1710000000 8.1140000000 8.1140000000 
Al 14.1995000000 10.1425000000 8.1140000000 
Al 14.1995000000 8.1140000000 10.1425000000 
Al 12.1710000000 10.1425000000 10.1425000000 
Al 12.1710000000 8.1140000000 12.1710000000 
Al 14.1995000000 10.1425000000 12.1710000000 
Al 14.1995000000 8.1140000000 14.1995000000 
Al 12.1710000000 10.1425000000 14.1995000000 
Al 12.1710000000 12.1710000000 0.0000000000 
Al 14.1995000000 14.1995000000 0.0000000000 
Al 14.1995000000 12.1710000000 2.0285000000 
Al 12.1710000000 14.1995000000 2.0285000000 
Al 12.1710000000 12.1710000000 4.0570000000 
Al 14.1995000000 14.1995000000 4.0570000000 
Al 14.1995000000 12.1710000000 6.0855000000 
Al 12.1710000000 14.1995000000 6.0855000000 
Al 12.1710000000 12.1710000000 8.1140000000 
Al 14.1995000000 14.1995000000 8.1140000000 
Al 14.1995000000 12.1710000000 10.1425000000 
Al 12.1710000000 14.1995000000 10.1425000000 
Al 12.1710000000 12.1710000000 12.1710000000 
Al 14.1995000000 14.1995000000 12.1710000000 
Al 14.1995000000 12.1710000000 14.1995000000 
Al 12.1710000000 14.1995000000 14.1995000000 

