Al 
 1.0000000000000000
     4.0436547535980996    0.0000000000000000    0.0000000000000000
     0.0000000000000000    4.0436547535980996    0.0000000000000000
     0.0000000000000000    0.0000000000000000    4.0436547535980996
   4
Cartesian
  0.0000000000000000  0.0000000000000000  0.0000000000000000
  0.0000000000000000  2.0218273767990493  2.0218273767990493
  2.0218273767990493  0.0000000000000000  2.0218273767990493
  2.0218273767990493  2.0218273767990493  0.0000000000000000
