Al 
 1.0000000000000000
     4.0395501669373468    0.0000000000000000    0.0000000000000000
     0.0000000000000000    4.0395501669373468    0.0000000000000000
     0.0000000000000000    0.0000000000000000    4.0395501669373468
   4
Cartesian
  0.0000000000000000  0.0000000000000000  0.0000000000000000
  0.0000000000000000  2.0197750834686730  2.0197750834686730
  2.0197750834686730  0.0000000000000000  2.0197750834686730
  2.0197750834686730  2.0197750834686730  0.0000000000000000
