&CONTROL
  calculation = 'scf'
  outdir = './out/'
  prefix = 'aiida'
  pseudo_dir = '/users/aglensk/Dropbox/Albert/scripts/dotfiles/scripts/potentials/quantum_espresso/pseudo_SSSPefV1.1_alalloy'
  tprnfor = .true.             	! calculate the pressure of the cell
  tstress = .true.
  verbosity = 'high'
  wf_collect = .true.
  etot_conv_thr = 2.5d-4    ! EDIFFG positive atomic units
  forc_conv_thr = 2.0d-5
/
&SYSTEM
  degauss =   4.4100000000d-02  ! SIGMA in Rydberg  so, 0.60001101eV
  ecutrho = 400                 ! AUGMENTATION charges
  ecutwfc =  40                 ! ENCUT in Rydberg, so 544eV
  ibrav = 0                     ! no symmetry
   nat              = 22
   ntyp             = 2
  occupations = 'smearing'      ! using smearing 
  smearing = 'mp'               ! methfessel paxton
  nosym= .true. 		! no symmetry
/
&ELECTRONS
  conv_thr =   1.0000000000d-12   	! EDIFF
  mixing_beta =   4.0000000000d-01      ! MIXING
  mixing_mode = 'local-TF'                 ! MIXING
/
&IONS
  !press_conv_thr = 0.05                 ! just for volume relaxations
/
ATOMIC_SPECIES
Mg 24.305 Mg.pbe-n-kjpaw_psl.0.3.0.UPF
Si 28.085 Si.pbe-n-rrkjus_psl.1.0.0.UPF

K_POINTS automatic
6 20 13 0 0 0
CELL_PARAMETERS angstrom
14.34112627722576 0.00000000000000 -4.83768937467126
0.00000000000000 4.08062993603626 0.00000000000000
-0.15207759265789 0.00000000000000 6.92596817128909

ATOMIC_POSITIONS angstrom
Mg -0.1300717584 0.0000000000 6.8398900895 
Mg 1.0836575586 2.0403147034 2.1207189472 
Mg 2.1243961996 2.0403147034 5.6215802146 
Mg 4.9380806416 0.0000000000 -1.2866769246 
Mg 5.9787907070 0.0000000000 2.2143044660 
Si 0.7479067896 0.0000000000 4.2705521661 
Si 2.7437669031 0.0000000000 0.7686246066 
Si 2.9260271763 0.0000000000 3.2789518625 
Si 4.1363618215 2.0403147034 1.0559498399 
Si 4.3186226239 2.0403147034 3.5662643956 
Si 6.3144636870 2.0403147034 0.0643490072 
Mg 7.0404916448 2.0403147034 4.4210459314 
Mg 8.2542209618 0.0000000000 -0.2981257402 
Mg 9.2949596028 0.0000000000 3.2027355273 
Mg 12.1086440448 2.0403147034 -3.7055216120 
Mg 13.1493535811 2.0403147034 -0.2045402213 
Si 7.9184701928 2.0403147034 1.8517074787 
Si 9.9143303063 2.0403147034 -1.6502200808 
Si 10.0965900503 2.0403147034 0.8601071752 
Si 11.3069246955 0.0000000000 -1.3628948475 
Si 11.4891860271 0.0000000000 1.1474197083 
Si 13.4850270902 0.0000000000 -2.3544956802 

