&CONTROL
  calculation = 'scf'
  outdir = './out/'
  prefix = 'aiida'
  pseudo_dir = '/users/aglensk/Dropbox/Albert/scripts/dotfiles/scripts/potentials/quantum_espresso/pseudo_SSSPefV1.1_alalloy'
  tprnfor = .true.             	! calculate the pressure of the cell
  tstress = .true.
  verbosity = 'high'
  wf_collect = .true.
  etot_conv_thr = 2.5d-4    ! EDIFFG positive atomic units
  forc_conv_thr = 2.0d-5
/
&SYSTEM
  degauss =   4.4100000000d-02  ! SIGMA in Rydberg  so, 0.60001101eV
  ecutrho = 400                 ! AUGMENTATION charges
  ecutwfc =  40                 ! ENCUT in Rydberg, so 544eV
  ibrav = 0                     ! no symmetry
   nat              = 100
   ntyp             = 3
  occupations = 'smearing'      ! using smearing 
  smearing = 'mp'               ! methfessel paxton
  nosym= .true. 		! no symmetry
/
&ELECTRONS
  conv_thr =   1.0000000000d-12   	! EDIFF
  mixing_beta =   4.0000000000d-01      ! MIXING
  mixing_mode = 'local-TF'                 ! MIXING
/
&IONS
  !press_conv_thr = 0.05                 ! just for volume relaxations
/
ATOMIC_SPECIES
Al 26.9815385 Al.pbe-n-kjpaw_psl.1.0.0.UPF
Mg 24.305 Mg.pbe-n-kjpaw_psl.0.3.0.UPF
Si 28.085 Si.pbe-n-rrkjus_psl.1.0.0.UPF

K_POINTS automatic
4 20 4 0 0 0
CELL_PARAMETERS angstrom
20.28499869684709 0.00000000000000 0.00000000000000
0.00000000000000 4.05699952769853 0.00000000000000
0.00000000000000 0.00000000000000 20.28499869684709

ATOMIC_POSITIONS angstrom
Al 1.9915002225 2.0242737546 20.2381871516 
Al 20.2563061793 4.0527338302 20.2382162564 
Al 1.9864169462 4.0528513075 1.9689731486 
Al 20.2566670782 2.0243007427 1.9714068346 
Al 1.9818734306 2.0244494415 3.9893294044 
Al 20.2577508331 4.0528788248 3.9901205243 
Al 1.9650768168 4.0531317715 6.0197373812 
Al 20.2586927685 2.0245372849 6.0273771126 
Al 1.9481082204 2.0247785897 8.0766502571 
Al 20.2590330295 4.0531751640 8.0748346500 
Al 1.9649471684 4.0531285964 10.1337880332 
Al 20.2581863459 2.0245462809 10.1228324774 
Al 1.9818221005 2.0244462664 12.1639642304 
Al 20.2570369730 4.0528851749 12.1610728062 
Al 1.9861745830 4.0528513075 14.1825292213 
Al 20.2565210253 2.0243012719 14.1792933027 
Al 1.9916986639 2.0242742838 16.1965708054 
Al 20.2562246860 4.0527338302 16.1972661443 
Al 1.9914594758 4.0527206008 18.2174133750 
Al 20.2561553638 2.0242340664 18.2176880180 
Al 6.0290852967 2.0245616270 20.2305103778 
Al 4.0043998421 4.0528851749 20.2312427591 
Al 6.0158114155 4.0532085022 1.9489427328 
Al 4.0080871489 2.0245050051 1.9698727499 
Al 6.0547879630 2.0251056212 4.0203365430 
Al 3.9909703829 4.0531672263 3.9789749939 
Al 5.9691956659 4.0537408544 5.9689712947 
Al 3.9797311881 2.0249235843 6.0200167868 
Al 5.8195358839 2.0255289630 8.0772434647 
Al 3.8884121352 4.0536069726 8.0772609276 
Al 5.9700793918 4.0537350335 10.1861601725 
Al 3.9801831055 2.0249145882 10.1348347457 
Al 6.0568676294 2.0251119713 12.1340006292 
Al 3.9917429816 4.0531635221 12.1753367779 
Al 6.0176529522 4.0532079730 14.2039291477 
Al 4.0091904834 2.0244923048 14.1816952380 
Al 6.0308003600 2.0245563353 16.2049577350 
Al 4.0049628867 4.0528814706 16.2036485506 
Al 6.0293303057 4.0529931270 18.2173847995 
Al 4.0089544704 2.0243076220 18.2172943102 
Al 10.1071222644 2.0249606267 20.2053061965 
Al 8.0577697434 4.0532788827 20.2233013967 
Al 10.1093638590 4.0538101767 1.8939083029 
Al 8.0723295251 2.0249870855 1.9652445660 
Al 7.9849449048 4.0537175706 3.9335525388 
Al 7.9878643755 4.0537207457 12.2224711212 
Al 10.1142698609 4.0538350480 14.2584291086 
Al 8.0767629718 2.0249913189 14.1883723961 
Al 10.1105185237 2.0249727977 16.2315705861 
Al 8.0601928458 4.0532735910 16.2131695070 
Al 10.1064544427 4.0533709596 18.2184182826 
Al 8.0642214719 2.0247224969 18.2178827552 
Al 14.1868933458 2.0245473393 20.2282693123 
Al 12.1574341837 4.0532794119 20.2211984465 
Al 14.2072100464 4.0532010937 1.9416792464 
Al 12.1471009403 2.0249876147 1.9606026235 
Al 14.1738279605 2.0251140881 4.0136519765 
Al 12.2476964696 4.0537096330 3.9270066167 
Al 14.2647305509 4.0537323876 5.9614575075 
Al 14.4183279405 2.0255395465 8.0746430879 
Al 14.2655031496 4.0537440295 10.1861374179 
Al 14.1779576594 2.0251177923 12.1373709589 
Al 12.2502508080 4.0537313292 12.2229653727 
Al 14.2087727067 4.0532143231 14.2083631236 
Al 12.1526954017 2.0249987274 14.1903684525 
Al 14.1887364700 2.0245515727 16.2093038675 
Al 12.1597350462 4.0532783536 16.2156735736 
Al 14.1873950058 4.0529915395 18.2190024942 
Al 12.1495415056 2.0247182635 18.2188913670 
Al 18.2344893945 2.0242774589 20.2368880216 
Al 16.2180718047 4.0528851749 20.2284412949 
Al 18.2417089591 4.0528687704 1.9652297490 
Al 16.2160540520 2.0245065926 1.9646365414 
Al 18.2472134605 2.0244579083 3.9847874764 
Al 16.2385070410 4.0531640513 3.9704414822 
Al 18.2672428179 4.0531381216 6.0141296903 
Al 16.2525080117 2.0249410471 6.0133184617 
Al 18.2857121609 2.0248140446 8.0724401232 
Al 16.3472053318 4.0536276105 8.0722406234 
Al 18.2672190049 4.0531518802 10.1316861413 
Al 16.2541082435 2.0249436930 10.1343124478 
Al 18.2481426957 2.0244759003 12.1649723130 
Al 16.2395331156 4.0531767515 12.1783980680 
Al 18.2419285677 4.0528846457 14.1851094894 
Al 16.2180797423 2.0245182345 14.1866668579 
Al 18.2349249073 2.0242822215 16.1990039623 
Al 16.2186390826 4.0528909958 16.2080317255 
Al 18.2340903948 4.0527227175 18.2184103449 
Al 16.2115094781 2.0243139721 18.2187754772 
Mg 8.3309183192 2.0259073247 6.2335503748 
Mg 11.9064491369 2.0259009746 6.2295000524 
Si 10.1124738335 2.0257517466 3.7352555503 
Si 10.1169803066 4.0546245804 5.3458058614 
Si 7.4639863455 4.0543642252 8.0777244868 
Mg 10.1215920860 4.0548627101 8.0763015293 
Mg 8.3325783481 2.0259099706 9.9213577797 
Mg 11.9097855992 2.0259099706 9.9206645575 
Si 12.7741881059 4.0543674003 8.0740504094 
Si 10.1188202558 4.0546515684 10.8062399735 
Si 10.1176528909 2.0257808513 12.4177644999 

