Al 
 1.0000000000000000
    16.2070588757291851    0.0000000000155443    0.0000000000079933
     0.0000000000155443   16.2070588757263536   -0.0000000000097686
     0.0000000000079933   -0.0000000000097686   16.2070588757264957
 257
Cartesian
 15.7154791071260096  0.0000000000150829  0.0000000000077638
  0.0145584970201233  2.0113238624474041  2.0113238624474108
  2.0258823594673894  0.0000000000004294  2.5174621280698779
  2.0258823594685600  2.5174621280708167 -0.0000000000005066
 16.1124834765146474  0.0000000000129618  4.1349616493329782
 16.1955400859157272  2.0374011492960662  6.1011163225341196
  2.0258823594691404 -0.0000000000017145  6.0703671491865965
  2.0258823594702173  2.1204577586818112  4.1349616493247519
  0.0003215416626827 -0.0000000000048833  8.1035294378632425
 16.1955400859177061  2.0374011492936517 10.1059425532058853
  2.0258823594711450 -0.0000000000041694 10.1366917265418977
  2.0258823594720852  2.0255608178041711  8.1035294378630223
 16.1124834765185483  0.0000000000081750 12.0720972264093973
  0.0145584970261318  2.0113238624400549 14.1957350132766802
  2.0258823594728992 -0.0000000000063038 13.6895967476585518
  2.0258823594741320  2.1204577586770403 12.0720972264011728
 16.1124834765165694  4.1349616493404486  0.0000000000054539
 16.1955400859176173  6.1011163225416096  2.0374011492885420
  2.0258823594711535  4.1349616493256640  2.1204577586808901
  2.0258823594719715  6.0703671491874847 -0.0000000000026578
 16.1868985041362912  4.0622550680656255  4.0622550680581186
 16.1985086692527105  6.0827283091686040  6.0827283091611113
  2.0258823594730733  4.0835588295537653  6.1092332995880811
  2.0258823594740156  6.1092332995889729  4.0835588295528602
 16.2004813224259756  4.0620780080016923  8.1035294378687848
 16.1985086692546965  6.0827283091661686 10.1243305665740309
  2.0258823594750419  4.0835588295513681 10.0978255761354827
  2.0258823594759838  6.0930266481075943  8.1035294378605709
 16.1868985041402702  4.0622550680607530 12.1448038076794500
 16.1955400859236001  6.1011163225342973 14.1696577264465748
  2.0258823594770603  4.1349616493184449 14.0866011170426244
  2.0258823594779849  6.1092332995841270 12.1235000461682709
  0.0003215416664507  8.1035294378631786 -0.0000000000048818
 16.1955400859214578 10.1059425532133478  2.0374011492861257
  2.0258823594749211  8.1035294378639016  2.0255608178032474
  2.0258823594758710 10.1366917265427556 -0.0000000000051097
 16.2004813224278585  8.1035294378762597  4.0620780079941774
 16.1985086692565865 10.1243305665814844  6.0827283091586786
  2.0258823594769244  8.1035294378614484  6.0930266481067017
  2.0258823594778508 10.0978255761363442  4.0835588295504559
 16.1983087404630020  8.1035294378738261  8.1035294378663547
 16.1985086692585689 10.1243305665790526 10.1243305665715919
  2.0258823594789077  8.1035294378590255 10.1140322276120198
  2.0258823594798470 10.1140322276128778  8.1035294378581533
 16.2004813224318376  8.1035294378713942 12.1449808677385267
 16.1955400859274405 10.1059425532060363 14.1696577264441590
  2.0258823594809163  8.1035294378565705 14.1814980579154764
  2.0258823594818107 10.0978255761314966 12.1235000461658533
 16.1124834765241758 12.0720972264168029  0.0000000000006680
  0.0145584970318052 14.1957350132765576  2.0113238624400673
  2.0258823594787736 12.0720972264020130  2.1204577586761086
  2.0258823594792776 13.6895967476593956 -0.0000000000072400
 16.1868985041440432 12.1448038076868876  4.0622550680532443
 16.1955400859273624 14.1696577264540018  6.1011163225268081
  2.0258823594807902 12.1235000461691058  6.1092332995832335
  2.0258823594816975 14.0866011170434504  4.1349616493175390
 16.2004813224337312 12.1449808677459661  8.1035294378639229
 16.1955400859293412 14.1696577264515842 10.1059425531985827
  2.0258823594827553 12.1235000461666989 10.0978255761306421
  2.0258823594837452 14.1814980579162970  8.1035294378556948
 16.1868985041480222 12.1448038076820151 12.1448038076745739
  0.0145584970378188 14.1957350132692159 14.1957350132693296
  2.0258823594846720 12.0720972263948063 14.0866011170378282
  2.0258823594856108 14.0866011170386471 12.0720972263939572
  4.5433444875354718  0.0000000000043632  0.0000000000022503
  4.0372062219180131  2.0113238624512570  2.0113238624493914
  6.1608440087929210  0.0000000000046285  2.1204577586854212
  6.1608440087939096  2.1204577586882722  0.0000000000017601
  4.1463401181509143  0.0000000000014835  4.1349616493270744
  4.0632835087556769  2.0374011492844315  6.1011163225281351
  6.1094411890253806  0.0000000000021718  6.1092332995925540
  6.0881374275233684  2.0460427310679798  4.0622550680543492
  4.0514431772776085 -0.0000000000009983  8.1035294378652427
  4.0632835087576522  2.0374011492820143 10.1059425531999061
  6.1094411890273550 -0.0000000000002306 10.0978255761399645
  6.0879603674638467  2.0324599127778469  8.1035294378650207
  4.1463401181548445 -0.0000000000033032 12.0720972264034980
  4.0372062219240279  2.0113238624439123 14.1957350132786644
  6.1608440087988177 -0.0000000000025854 14.0866011170471541
  6.0881374275273563  2.0460427310631104 12.1448038076756912
  4.1463401181528452  4.1349616493289707 -0.0000000000004502
  4.0632835087575723  6.1011163225299736  2.0374011492825566
  6.0881374275243099  4.0622550680571488  2.0460427310651577
  6.1094411890282263  6.1092332995953491 -0.0000000000006729
  4.0719250905369950  4.0622550680540028  4.0622550680521421
  4.0603149254264412  6.0827283091569662  6.0827283091551276
  6.0852741986812395  4.0593918392096517  6.0849636263467390
  6.0852741986821863  6.0849636263495217  4.0593918392068549
  4.0583422722512879  4.0620780079900438  8.1035294378627967
  4.0603149254284361  6.0827283091545290 10.1243305665680392
  6.0852741986832308  4.0593918392072208 10.1220952493808660
  6.0831787897453973  6.0811834639447193  8.1035294378625782
  4.0719250905409847  4.0622550680491356 12.1448038076734743
  4.0632835087635559  6.1011163225226639 14.1696577264405921
  6.0881374275302820  4.0622550680498506 14.1610161446624456
  6.0852741986861698  6.0849636263446447 12.1476670365183104
  4.0514431772813850  8.1035294378670635 -0.0000000000028859
  4.0632835087614154 10.1059425532017126  2.0374011492801416
  6.0879603674666676  8.1035294378677936  2.0324599127750274
  6.1094411890320552 10.0978255761427249 -0.0000000000030757
  4.0583422722531699  8.1035294378646210  4.0620780079881902
  4.0603149254303235 10.1243305665698422  6.0827283091526896
  6.0831787897463387  8.1035294378653475  6.0811834639419393
  6.0852741986860552 10.1220952493836123  4.0593918392044239
  4.0605148542220206  8.1035294378621927  8.1035294378603684
  4.0603149254323183 10.1243305665674068 10.1243305665656003
  6.0831787897483274  8.1035294378629104 10.1258754117807914
  6.0831787897492715 10.1258754117835394  8.1035294378601392
  4.0583422722571569  8.1035294378597467 12.1449808677325333
  4.0632835087673982 10.1059425531944012 14.1696577264381780
  6.0879603674726583  8.1035294378604732 14.1745989629477016
  6.0852741986900423 10.1220952493787397 12.1476670365158732
  4.1463401181604649 12.0720972264053277 -0.0000000000052310
  4.0372062219297069 14.1957350132804159  2.0113238624420515
  6.0881374275320592 12.1448038076784162  2.0460427310602900
  6.1608440088053822 14.0866011170498986 -0.0000000000054538
  4.0719250905447524 12.1448038076752649  4.0622550680472695
  4.0632835087673147 14.1696577264423613  6.1011163225208227
  6.0852741986889951 12.1476670365210389  6.0849636263418603
  6.0881374275349875 14.1610161446651528  4.0622550680470511
  4.0583422722590416 12.1449808677343221  8.1035294378579241
  4.0632835087692900 14.1696577264399437 10.1059425531925928
  6.0852741986909891 12.1476670365186035 10.1220952493759899
  6.0879603674754899 14.1745989629504106  8.1035294378577039
  4.0719250905487385 12.1448038076703924 12.1448038076686018
  4.0372062219357119 14.1957350132730742 14.1957350132713156
  6.0881374275380393 12.1448038076711118 14.1610161446575695
  6.0881374275389790 14.1610161446602802 12.1448038076683815
  8.0962495086527504  0.0000000000077665  0.0000000000039965
  8.1269986819974847  2.0374011492907749  2.0374011492870094
 10.1294117973317395  0.0000000000084957  2.0255608178121256
 10.1294117973326845  2.0255608178168258  0.0000000000037799
  8.1351156590587248  0.0000000000053372  4.0835588295595517
  8.1086106686289003  2.0344325659552176  6.0827283091595641
 10.1294117973337521  0.0000000000060426  6.0930266481155844
 10.1294117973346989  2.0324599127841561  4.0620780079948400
  8.1189090075817454  0.0000000000028991  8.1035294378672500
  8.1086106686308916  2.0344325659527795 10.1243305665724748
 10.1294117973357292  0.0000000000036153 10.1140322276208980
 10.1294117973366884  2.0346324947485779  8.1035294378670191
  8.1351156590626861  0.0000000000004902 12.1235000461749642
  8.1269986820034639  2.0374011492834652 14.1696577264450507
 10.1294117973377311  0.0000000000011650 14.1814980579243599
 10.1294117973386815  2.0324599127792857 12.1449808677391875
  8.1351156590606220  4.0835588295633070  0.0000000000015490
  8.1086106686307868  6.0827283091632873  2.0344325659514584
 10.1294117973356421  4.0620780079995251  2.0324599127794585
 10.1294117973365854  6.0930266481202464  0.0000000000013234
  8.1108459858192372  4.0593918392128172  4.0593918392090753
  8.1065997670982792  6.0807174076263424  6.0807174076226227
 10.1294117973376334  4.0572964302747563  6.0811834639463722
 10.1294117973385749  6.0811834639510405  4.0572964302700782
  8.1070658234188713  4.0572964302715988  8.1035294378647968
  8.1065997671002741  6.0807174076239106 10.1263414681045418
 10.1294117973396300  4.0572964302723209 10.1258754117852252
 10.1294117973405697  6.0807644167920447  8.1035294378645730
  8.1108459858232198  4.0593918392079429 12.1476670365205308
  8.1086106686367661  6.0827283091559696 14.1726263097757030
 10.1294117973416302  4.0620780079922092 14.1745989629521336
 10.1294117973425681  6.0811834639461626 12.1497624454590873
  8.1189090075855166  8.1035294378709661 -0.0000000000008806
  8.1086106686346611 10.1243305665761678  2.0344325659490208
 10.1294117973395252  8.1035294378716696  2.0346324947438772
 10.1294117973404401 10.1140322276255361 -0.0000000000011019
  8.1070658234207542  8.1035294378685059  4.0572964302678614
  8.1065997671021570 10.1263414681082331  6.0807174076201846
 10.1294117973415112  8.1035294378692235  6.0807644167873764
 10.1294117973424562 10.1258754117898579  4.0572964302676402
  8.1066467762661958  8.1035294378660705  8.1035294378623561
  8.1065997671041519 10.1263414681057888 10.1263414681020976
 10.1294117973435096  8.1035294378667881 10.1262944589393342
 10.1294117973444493 10.1262944589439670  8.1035294378621323
  8.1070658234247475  8.1035294378636333 12.1497624454568669
  8.1086106686406438 10.1243305665688528 14.1726263097732676
 10.1294117973455027  8.1035294378643528 14.1724263809828450
 10.1294117973464424 10.1258754117849801 12.1497624454566466
  8.1351156590683349 12.1235000461786449 -0.0000000000032995
  8.1269986820091145 14.1696577264487082  2.0374011492796966
 10.1294117973433941 12.1449808677438025  2.0324599127745837
 10.1294117973443356 14.1814980579289571 -0.0000000000035518
  8.1108459858269928 12.1476670365242025  4.0593918392042019
  8.1086106686405390 14.1726263097793534  6.0827283091522499
 10.1294117973453943 12.1497624454636970  6.0811834639414988
 10.1294117973463376 14.1745989629567255  4.0620780079875258
  8.1070658234266304 12.1497624454605404  8.1035294378599190
  8.1086106686425339 14.1726263097769181 10.1243305665651597
 10.1294117973473892 12.1497624454612634 10.1258754117803456
 10.1294117973483306 14.1724263809874351  8.1035294378596987
  8.1108459858309772 12.1476670365193264 12.1476670365156565
  8.1269986820150990 14.1696577264413950 14.1696577264377304
 10.1294117973493769 12.1449808677364857 14.1745989629472611
 10.1294117973503255 14.1745989629518565 12.1449808677318707
 12.1625740860087301  0.0000000000116691  0.0000000000060028
 12.1318249126699147  2.0374011492946189  2.0374011492889865
 14.0979795858706520  0.0000000000122490  2.1204577586893389
 14.0979795858716450  2.1204577586958910  0.0000000000056791
 12.1237079356067881  0.0000000000091695  4.0835588295615208
 12.1502129260424887  2.0344325659590932  6.0827283091615572
 14.1493824056421253  0.0000000000098900  6.1092332995965215
 14.1706861671460445  2.0460427310757359  4.0622550680583371
 12.1399145870877287  0.0000000000067620  8.1035294378692377
 12.1502129260444818  2.0344325659566573 10.1243305665744714
 14.1493824056440918  0.0000000000074852 10.0978255761439240
 14.1708632272095283  2.0324599127855980  8.1035294378690033
 12.1237079356107547  0.0000000000043185 12.1235000461769289
 12.1318249126759046  2.0374011492873092 14.1696577264470243
 14.0979795858765655  0.0000000000050303 14.0866011170510657
 14.1706861671500359  2.0460427310708664 12.1448038076796756
 12.1237079356086923  4.0835588295671350  0.0000000000035215
 12.1502129260443787  6.0827283091671633  2.0344325659534546
 14.1706861671469859  4.0622550680649034  2.0460427310691505
 14.1493824056449728  6.1092332996030603  0.0000000000032955
 12.1479776088540348  4.0593918392166897  4.0593918392110675
 12.1522238275808743  6.0807174076302202  6.0807174076246149
 14.1735493959940335  4.0593918392174126  6.0849636263507216
 14.1735493959949750  6.0849636263572737  4.0593918392108455
 12.1517577712583922  4.0572964302754730  8.1035294378667864
 12.1522238275828691  6.0807174076277883 10.1263414681065367
 14.1735493959960230  4.0593918392149781 10.1220952493848539
 14.1756448049357484  6.0811834639524811  8.1035294378665697
 12.1479776088580333  4.0593918392118198 12.1476670365225203
 12.1502129260503668  6.0827283091598421 14.1726263097777014
 14.1706861671529616  4.0622550680576035 14.1610161446664282
 14.1735493959989647  6.0849636263523967 12.1476670365223001
 12.1399145870915142  8.1035294378748244  0.0000000000011010
 12.1502129260482548 10.1243305665800438  2.0344325659510130
 14.1708632272123598  8.1035294378755403  2.0324599127790148
 14.1493824056487956 10.0978255761504343  0.0000000000008928
 12.1517577712602787  8.1035294378723837  4.0572964302698518
 12.1522238275847521 10.1263414681121091  6.0807174076221786
 14.1756448049366899  8.1035294378731066  6.0811834639459290
 14.1735493959988421 10.1220952493913696  4.0593918392084083
 12.1521768184188250  8.1035294378699447  8.1035294378643545
 12.1522238275867487 10.1263414681096702 10.1263414681040977
 14.1756448049386901  8.1035294378706713 10.1258754117847793
 14.1756448049396262 10.1258754117912968  8.1035294378641378
 12.1517577712642684  8.1035294378675076 12.1497624454588635
 12.1502129260542375 10.1243305665727323 14.1726263097752625
 14.1708632272183479  8.1035294378682199 14.1745989629516895
 14.1735493960028407 10.1220952493865006 12.1476670365198629
 12.1237079356163999 12.1235000461824676 -0.0000000000013284
 12.1318249126815498 14.1696577264525505  2.0374011492816764
 14.1706861671547379 12.1448038076861664  2.0460427310642815
 14.0979795858831238 14.0866011170575067 -0.0000000000015362
 12.1479776088617939 12.1476670365280679  4.0593918392061923
 12.1502129260541274 14.1726263097832330  6.0827283091542377
 14.1735493960017891 12.1476670365287944  6.0849636263458473
 14.1706861671576654 14.1610161446729066  4.0622550680510372
 12.1517577712661495 12.1497624454644164  8.1035294378619138
 12.1502129260561205 14.1726263097807976 10.1243305665671546
 14.1735493960037822 12.1476670365263590 10.1220952493799867
 14.1708632272211794 14.1745989629581679  8.1035294378616900
 12.1479776088657871 12.1476670365231971 12.1476670365176460
 12.1318249126875397 14.1696577264452337 14.1696577264397074
 14.1706861671607154 12.1448038076788638 14.1610161446615539
 14.1706861671616533 14.1610161446680287 12.1448038076723641
  2.0258823594661450  0.0000000000019329  0.0000000000009696
