Al 
 1.0000000000000000
    16.2070588757291851    0.0000000000155443    0.0000000000079933
     0.0000000000155443   16.2070588757263536   -0.0000000000097686
     0.0000000000079933   -0.0000000000097686   16.2070588757264957
 257
Direct
  0.9696687861522278  0.0000000000000006  0.0000000000000008
  0.0008982812445387  0.1241017187554618  0.1241017187554615
  0.1250000000000000  0.0000000000000002  0.1553312138477705
  0.1249999999999998  0.1553312138477715  0.0000000000000007
  0.9941645550903621  0.0000000000000000  0.2551333762054763
  0.9992892732785915  0.1257107267214083  0.3764480877937128
  0.1249999999999999  0.0000000000000001  0.3745508173773132
  0.1249999999999998  0.1308354449096383  0.2551333762054763
  0.0000198396057639  0.0000000000000000  0.4999999999999997
  0.9992892732785917  0.1257107267214082  0.6235519122062867
  0.1249999999999998  0.9999999999999998  0.6254491826226869
  0.1249999999999998  0.1249801603942364  0.4999999999999998
  0.9941645550903612  0.9999999999999999  0.7448666237945228
  0.0008982812445387  0.1241017187554615  0.8758982812445388
  0.1249999999999999  0.0000000000000003  0.8446687861522256
  0.1249999999999998  0.1308354449096392  0.7448666237945230
  0.9941645550903618  0.2551333762054763  0.0000000000000000
  0.9992892732785913  0.3764480877937126  0.1257107267214085
  0.1249999999999996  0.2551333762054765  0.1308354449096386
  0.1250000000000001  0.3745508173773130  0.0000000000000001
  0.9987560746367753  0.2506472703777656  0.2506472703777655
  0.9994724393518363  0.3753135196088515  0.3753135196088516
  0.1249999999999997  0.2519617446242226  0.3769489175324349
  0.1249999999999996  0.3769489175324349  0.2519617446242228
  0.9995941550307469  0.2506363455046675  0.4999999999999997
  0.9994724393518358  0.3753135196088516  0.6246864803911484
  0.1249999999999998  0.2519617446242230  0.6230510824675647
  0.1249999999999997  0.3759489426694307  0.4999999999999998
  0.9987560746367748  0.2506472703777655  0.7493527296222346
  0.9992892732785913  0.3764480877937126  0.8742892732785916
  0.1249999999999999  0.2551333762054760  0.8691645550903618
  0.1249999999999999  0.3769489175324349  0.7480382553757773
  0.0000198396057634  0.5000000000000001  0.0000000000000001
  0.9992892732785913  0.6235519122062869  0.1257107267214084
  0.1250000000000001  0.5000000000000001  0.1249801603942365
  0.1250000000000001  0.6254491826226870  0.0000000000000001
  0.9995941550307469  0.4999999999999996  0.2506363455046673
  0.9994724393518363  0.6246864803911482  0.3753135196088518
  0.1249999999999999  0.5000000000000000  0.3759489426694306
  0.1250000000000002  0.6230510824675650  0.2519617446242228
  0.9994601034435028  0.4999999999999999  0.5000000000000001
  0.9994724393518357  0.6246864803911484  0.6246864803911484
  0.1249999999999999  0.5000000000000001  0.6240510573305692
  0.1250000000000001  0.6240510573305693  0.5000000000000001
  0.9995941550307464  0.5000000000000000  0.7493636544953325
  0.9992892732785913  0.6235519122062870  0.8742892732785914
  0.1250000000000001  0.4999999999999999  0.8750198396057633
  0.1249999999999999  0.6230510824675649  0.7480382553757765
  0.9941645550903614  0.7448666237945231  0.9999999999999999
  0.0008982812445385  0.8758982812445384  0.1241017187554616
  0.1250000000000001  0.7448666237945230  0.1308354449096388
  0.1250000000000000  0.8446687861522267  0.0000000000000007
  0.9987560746367753  0.7493527296222348  0.2506472703777654
  0.9992892732785915  0.8742892732785918  0.3764480877937129
  0.1250000000000001  0.7480382553757771  0.3769489175324348
  0.1250000000000000  0.8691645550903619  0.2551333762054762
  0.9995941550307471  0.7493636544953324  0.5000000000000003
  0.9992892732785917  0.8742892732785916  0.6235519122062873
  0.1249999999999999  0.7480382553757768  0.6230510824675650
  0.1249999999999999  0.8750198396057633  0.4999999999999997
  0.9987560746367748  0.7493527296222348  0.7493527296222344
  0.0008982812445387  0.8758982812445386  0.8758982812445385
  0.1249999999999999  0.7448666237945234  0.8691645550903611
  0.1249999999999999  0.8691645550903608  0.7448666237945227
  0.2803312138477722  0.0000000000000003  0.0000000000000006
  0.2491017187554612  0.1241017187554615  0.1241017187554613
  0.3801333762054769  0.9999999999999999  0.1308354449096386
  0.3801333762054769  0.1308354449096385  0.0000000000000000
  0.2558354449096381  0.9999999999999999  0.2551333762054762
  0.2507107267214083  0.1257107267214084  0.3764480877937127
  0.3769617446242228  0.9999999999999997  0.3769489175324347
  0.3756472703777654  0.1262439253632248  0.2506472703777653
  0.2499801603942362  0.0000000000000000  0.4999999999999998
  0.2507107267214083  0.1257107267214082  0.6235519122062869
  0.3769617446242232  0.9999999999999998  0.6230510824675651
  0.3756363455046677  0.1254058449692528  0.4999999999999997
  0.2558354449096391  0.9999999999999998  0.7448666237945231
  0.2491017187554615  0.1241017187554614  0.8758982812445389
  0.3801333762054765  0.9999999999999998  0.8691645550903616
  0.3756472703777655  0.1262439253632250  0.7493527296222351
  0.2558354449096384  0.2551333762054762  0.9999999999999998
  0.2507107267214084  0.3764480877937126  0.1257107267214084
  0.3756472703777655  0.2506472703777652  0.1262439253632247
  0.3769617446242227  0.3769489175324349  0.9999999999999998
  0.2512439253632249  0.2506472703777654  0.2506472703777655
  0.2505275606481639  0.3753135196088517  0.3753135196088518
  0.3754706048354845  0.2504706048354842  0.3754514420540365
  0.3754706048354847  0.3754514420540366  0.2504706048354844
  0.2504058449692528  0.2506363455046673  0.4999999999999998
  0.2505275606481641  0.3753135196088517  0.6246864803911483
  0.3754706048354845  0.2504706048354844  0.6245485579459635
  0.3753413149405786  0.3752182003269997  0.4999999999999997
  0.2512439253632251  0.2506472703777657  0.7493527296222346
  0.2507107267214084  0.3764480877937128  0.8742892732785916
  0.3756472703777652  0.2506472703777655  0.8737560746367753
  0.3754706048354843  0.3754514420540365  0.7495293951645158
  0.2499801603942363  0.5000000000000001  0.0000000000000000
  0.2507107267214085  0.6235519122062869  0.1257107267214083
  0.3756363455046673  0.5000000000000002  0.1254058449692528
  0.3769617446242229  0.6230510824675651  0.9999999999999999
  0.2504058449692527  0.5000000000000000  0.2506363455046675
  0.2505275606481643  0.6246864803911482  0.3753135196088517
  0.3753413149405785  0.5000000000000001  0.3752182003269998
  0.3754706048354846  0.6245485579459634  0.2504706048354846
  0.2505398965564973  0.5000000000000004  0.5000000000000001
  0.2505275606481644  0.6246864803911482  0.6246864803911480
  0.3753413149405782  0.5000000000000002  0.6247817996730005
  0.3753413149405783  0.6247817996730007  0.4999999999999997
  0.2504058449692528  0.4999999999999999  0.7493636544953322
  0.2507107267214085  0.6235519122062870  0.8742892732785916
  0.3756363455046675  0.5000000000000001  0.8745941550307470
  0.3754706048354844  0.6245485579459636  0.7495293951645156
  0.2558354449096388  0.7448666237945232  0.0000000000000000
  0.2491017187554616  0.8758982812445384  0.1241017187554616
  0.3756472703777653  0.7493527296222348  0.1262439253632249
  0.3801333762054766  0.8691645550903614  0.9999999999999999
  0.2512439253632252  0.7493527296222345  0.2506472703777654
  0.2507107267214084  0.8742892732785915  0.3764480877937127
  0.3754706048354844  0.7495293951645157  0.3754514420540364
  0.3756472703777653  0.8737560746367748  0.2506472703777655
  0.2504058449692529  0.7493636544953325  0.4999999999999997
  0.2507107267214084  0.8742892732785913  0.6235519122062869
  0.3754706048354846  0.7495293951645156  0.6245485579459634
  0.3756363455046676  0.8745941550307468  0.4999999999999998
  0.2512439253632252  0.7493527296222345  0.7493527296222345
  0.2491017187554614  0.8758982812445386  0.8758982812445386
  0.3756472703777656  0.7493527296222346  0.8737560746367750
  0.3756472703777656  0.8737560746367748  0.7493527296222346
  0.4995508173773131  0.0000000000000001  0.0000000000000002
  0.5014480877937131  0.1257107267214082  0.1257107267214083
  0.6250000000000000  0.0000000000000001  0.1249801603942364
  0.6250000000000000  0.1249801603942363  0.0000000000000003
  0.5019489175324352  0.9999999999999998  0.2519617446242226
  0.5003135196088518  0.1255275606481641  0.3753135196088518
  0.6250000000000003  0.0000000000000000  0.3759489426694307
  0.6250000000000003  0.1254058449692526  0.2506363455046672
  0.5009489426694308  0.9999999999999998  0.4999999999999999
  0.5003135196088517  0.1255275606481640  0.6246864803911482
  0.6250000000000000  0.9999999999999998  0.6240510573305691
  0.6249999999999999  0.1255398965564972  0.5000000000000001
  0.5019489175324350  0.9999999999999997  0.7480382553757772
  0.5014480877937129  0.1257107267214083  0.8742892732785920
  0.6249999999999998  0.9999999999999999  0.8750198396057636
  0.6250000000000001  0.1254058449692527  0.7493636544953322
  0.5019489175324349  0.2519617446242226  0.9999999999999999
  0.5003135196088518  0.3753135196088517  0.1255275606481642
  0.6250000000000002  0.2506363455046673  0.1254058449692529
  0.6250000000000000  0.3759489426694305  0.0000000000000000
  0.5004514420540365  0.2504706048354843  0.2504706048354844
  0.5001894439483684  0.3751894439483679  0.3751894439483682
  0.6250000000000001  0.2503413149405783  0.3752182003269997
  0.6250000000000001  0.3752182003269998  0.2503413149405787
  0.5002182003269998  0.2503413149405784  0.4999999999999998
  0.5001894439483683  0.3751894439483683  0.6248105560516319
  0.6250000000000002  0.2503413149405785  0.6247817996730004
  0.6250000000000000  0.3751923444848158  0.4999999999999997
  0.5004514420540360  0.2504706048354844  0.7495293951645158
  0.5003135196088514  0.3753135196088516  0.8744724393518359
  0.6250000000000001  0.2506363455046675  0.8745941550307472
  0.6250000000000002  0.3752182003269998  0.7496586850594219
  0.5009489426694306  0.5000000000000001  0.0000000000000000
  0.5003135196088517  0.6246864803911483  0.1255275606481641
  0.6250000000000006  0.5000000000000002  0.1255398965564973
  0.6249999999999999  0.6240510573305694  0.9999999999999999
  0.5002182003269998  0.5000000000000000  0.2503413149405787
  0.5001894439483682  0.6248105560516320  0.3751894439483682
  0.6250000000000000  0.4999999999999998  0.3751923444848157
  0.6250000000000002  0.6247817996730006  0.2503413149405787
  0.5001923444848160  0.5000000000000002  0.4999999999999997
  0.5001894439483681  0.6248105560516317  0.6248105560516316
  0.6250000000000001  0.5000000000000000  0.6248076555151838
  0.6250000000000000  0.6248076555151840  0.4999999999999996
  0.5002182003269999  0.5000000000000003  0.7496586850594217
  0.5003135196088515  0.6246864803911484  0.8744724393518359
  0.6250000000000000  0.5000000000000002  0.8744601034435029
  0.6249999999999999  0.6247817996730006  0.7496586850594217
  0.5019489175324350  0.7480382553757770  0.9999999999999998
  0.5014480877937126  0.8742892732785915  0.1257107267214083
  0.6250000000000002  0.7493636544953324  0.1254058449692527
  0.6249999999999996  0.8750198396057636  0.0000000000000000
  0.5004514420540364  0.7495293951645157  0.2504706048354846
  0.5003135196088516  0.8744724393518356  0.3753135196088519
  0.6250000000000001  0.7496586850594216  0.3752182003269999
  0.6249999999999999  0.8745941550307469  0.2506363455046675
  0.5002182003269997  0.7496586850594218  0.4999999999999998
  0.5003135196088517  0.8744724393518356  0.6246864803911483
  0.6250000000000001  0.7496586850594219  0.6247817996730003
  0.6250000000000000  0.8744601034435027  0.4999999999999998
  0.5004514420540360  0.7495293951645157  0.7495293951645159
  0.5014480877937127  0.8742892732785915  0.8742892732785914
  0.6249999999999998  0.7493636544953325  0.8745941550307471
  0.6250000000000000  0.8745941550307471  0.7493636544953323
  0.7504491826226869  0.0000000000000002  0.0000000000000003
  0.7485519122062869  0.1257107267214083  0.1257107267214085
  0.8698666237945231  0.0000000000000003  0.1308354449096388
  0.8698666237945234  0.1308354449096389  0.0000000000000003
  0.7480510824675650  0.0000000000000002  0.2519617446242227
  0.7496864803911486  0.1255275606481641  0.3753135196088518
  0.8730382553757772  0.0000000000000001  0.3769489175324349
  0.8743527296222346  0.1262439253632251  0.2506472703777654
  0.7490510573305692  0.0000000000000002  0.5000000000000001
  0.7496864803911486  0.1255275606481641  0.6246864803911484
  0.8730382553757771  0.0000000000000000  0.6230510824675647
  0.8743636544953324  0.1254058449692527  0.4999999999999995
  0.7480510824675651  0.9999999999999999  0.7480382553757771
  0.7485519122062874  0.1257107267214085  0.8742892732785918
  0.8698666237945238  0.0000000000000000  0.8691645550903615
  0.8743527296222350  0.1262439253632252  0.7493527296222350
  0.7480510824675651  0.2519617446242228  0.0000000000000002
  0.7496864803911488  0.3753135196088516  0.1255275606481644
  0.8743527296222349  0.2506472703777654  0.1262439253632251
  0.8730382553757772  0.3769489175324349  0.0000000000000000
  0.7495485579459635  0.2504706048354844  0.2504706048354845
  0.7498105560516324  0.3751894439483677  0.3751894439483680
  0.8745293951645157  0.2504706048354844  0.3754514420540361
  0.8745293951645156  0.3754514420540362  0.2504706048354845
  0.7497817996730004  0.2503413149405781  0.4999999999999995
  0.7498105560516323  0.3751894439483682  0.6248105560516319
  0.8745293951645156  0.2504706048354844  0.6245485579459634
  0.8746586850594218  0.3752182003269997  0.4999999999999998
  0.7495485579459641  0.2504706048354847  0.7495293951645158
  0.7496864803911489  0.3753135196088513  0.8744724393518362
  0.8743527296222349  0.2506472703777655  0.8737560746367751
  0.8745293951645156  0.3754514420540361  0.7495293951645158
  0.7490510573305699  0.5000000000000002  0.9999999999999999
  0.7496864803911488  0.6246864803911483  0.1255275606481640
  0.8743636544953326  0.4999999999999999  0.1254058449692528
  0.8730382553757771  0.6230510824675650  0.0000000000000000
  0.7497817996730006  0.4999999999999999  0.2503413149405784
  0.7498105560516322  0.6248105560516318  0.3751894439483682
  0.8746586850594218  0.4999999999999999  0.3752182003269997
  0.8745293951645152  0.6245485579459634  0.2504706048354843
  0.7498076555151841  0.4999999999999999  0.4999999999999999
  0.7498105560516322  0.6248105560516318  0.6248105560516319
  0.8746586850594221  0.5000000000000001  0.6247817996730003
  0.8746586850594217  0.6247817996730004  0.5000000000000001
  0.7497817996730005  0.5000000000000000  0.7496586850594218
  0.7496864803911486  0.6246864803911486  0.8744724393518361
  0.8743636544953325  0.4999999999999998  0.8745941550307471
  0.8745293951645158  0.6245485579459639  0.7495293951645156
  0.7480510824675649  0.7480382553757767  0.0000000000000000
  0.7485519122062868  0.8742892732785916  0.1257107267214086
  0.8743527296222349  0.7493527296222346  0.1262439253632252
  0.8698666237945235  0.8691645550903612  0.0000000000000001
  0.7495485579459636  0.7495293951645152  0.2504706048354845
  0.7496864803911484  0.8744724393518358  0.3753135196088516
  0.8745293951645156  0.7495293951645156  0.3754514420540362
  0.8743527296222348  0.8737560746367750  0.2506472703777655
  0.7497817996730002  0.7496586850594216  0.4999999999999998
  0.7496864803911484  0.8744724393518358  0.6246864803911483
  0.8745293951645157  0.7495293951645154  0.6245485579459640
  0.8743636544953327  0.8745941550307471  0.4999999999999998
  0.7495485579459639  0.7495293951645156  0.7495293951645158
  0.7485519122062873  0.8742892732785914  0.8742892732785916
  0.8743527296222350  0.7493527296222346  0.8737560746367748
  0.8743527296222349  0.8737560746367747  0.7493527296222344
  0.1249999999999998  0.9999999999999993  0.9999999999999982
