&CONTROL
  calculation = 'scf'
  outdir = './out/'
  prefix = 'aiida'
  pseudo_dir = '/users/aglensk/Dropbox/Albert/scripts/dotfiles/scripts/potentials/quantum_espresso/pseudo_SSSPefV1.1_alalloy'
  tprnfor = .true.             	! calculate the pressure of the cell
  tstress = .true.
  verbosity = 'high'
  wf_collect = .true.
  etot_conv_thr = 2.5d-4    ! EDIFFG positive atomic units
  forc_conv_thr = 2.0d-5
/
&SYSTEM
  degauss =   4.4100000000d-02  ! SIGMA in Rydberg  so, 0.60001101eV
  ecutrho = 400                 ! AUGMENTATION charges
  ecutwfc =  40                 ! ENCUT in Rydberg, so 544eV
  ibrav = 0                     ! no symmetry
   nat              = 255
   ntyp             = 2
  occupations = 'smearing'      ! using smearing 
  smearing = 'mp'               ! methfessel paxton
  nosym= .true. 		! no symmetry
/
&ELECTRONS
  conv_thr =   1.0000000000d-12   	! EDIFF
  mixing_beta =   4.0000000000d-01      ! MIXING
  mixing_mode = 'local-TF'                 ! MIXING
/
&IONS
  !press_conv_thr = 0.05                 ! just for volume relaxations
/
ATOMIC_SPECIES
Al 26.9815385 Al.pbe-n-kjpaw_psl.1.0.0.UPF
Mg 24.305 Mg.pbe-n-kjpaw_psl.0.3.0.UPF

K_POINTS automatic
5 5 5 0 0 0
CELL_PARAMETERS angstrom
16.22799863997135 0.00000000000000 0.00000000000000
0.00000000000000 16.22799863997135 0.00000000000000
0.00000000000000 0.00000000000000 16.22799863997135

ATOMIC_POSITIONS angstrom
Al 1.9928893126 0.0000000000 1.9928893126 
Al 1.9928893126 1.9928893126 0.0000000000 
Al 0.0000000000 1.9928893126 1.9928893126 
Al 0.0000000000 0.0000000000 4.0528105609 
Al 2.0269037654 2.0269037654 4.0543155409 
Al 2.0276218589 0.0000000000 6.0856977330 
Al 0.0000000000 2.0276218589 6.0856977330 
Al 0.0000000000 0.0000000000 8.1139995846 
Al 2.0277192275 2.0277192275 8.1139995846 
Al 2.0276218589 0.0000000000 10.1423014361 
Al 0.0000000000 2.0276218589 10.1423014361 
Al 0.0000000000 0.0000000000 12.1751880791 
Al 2.0269037654 2.0269037654 12.1736830991 
Al 1.9928893126 0.0000000000 14.2351098565 
Al 0.0000000000 1.9928893126 14.2351098565 
Al 0.0000000000 4.0528105609 0.0000000000 
Al 2.0276218589 6.0856977330 0.0000000000 
Al 2.0269037654 4.0543155409 2.0269037654 
Al 0.0000000000 6.0856977330 2.0276218589 
Al 0.0000000000 4.0424392167 4.0424392167 
Al 2.0256607281 6.0838847719 4.0558088790 
Al 2.0256607281 4.0558088790 6.0838847719 
Al 0.0000000000 6.0830132170 6.0830132170 
Al 0.0000000000 4.0565407311 8.1139995846 
Al 2.0255273755 6.0856606906 8.1139995846 
Al 2.0256607281 4.0558088790 10.1441143973 
Al 0.0000000000 6.0830132170 10.1449859521 
Al 0.0000000000 4.0424392167 12.1855594232 
Al 2.0256607281 6.0838847719 12.1721897610 
Al 2.0269037654 4.0543155409 14.2010948746 
Al 0.0000000000 6.0856977330 14.2003767811 
Al 0.0000000000 8.1139995846 0.0000000000 
Al 2.0276218589 10.1423014361 0.0000000000 
Al 2.0277192275 8.1139995846 2.0277192275 
Al 0.0000000000 10.1423014361 2.0276218589 
Al 0.0000000000 8.1139995846 4.0565407311 
Al 2.0256607281 10.1441143973 4.0558088790 
Al 2.0255273755 8.1139995846 6.0856606906 
Al 0.0000000000 10.1449859521 6.0830132170 
Al 0.0000000000 8.1139995846 8.1139995846 
Al 2.0255273755 10.1423379494 8.1139995846 
Al 2.0255273755 8.1139995846 10.1423379494 
Al 0.0000000000 10.1449859521 10.1449859521 
Al 0.0000000000 8.1139995846 12.1714579089 
Al 2.0256607281 10.1441143973 12.1721897610 
Al 2.0277192275 8.1139995846 14.2002794125 
Al 0.0000000000 10.1423014361 14.2003767811 
Al 0.0000000000 12.1751880791 0.0000000000 
Al 1.9928893126 14.2351098565 0.0000000000 
Al 2.0269037654 12.1736830991 2.0269037654 
Al 0.0000000000 14.2351098565 1.9928893126 
Al 0.0000000000 12.1855594232 4.0424392167 
Al 2.0269037654 14.2010948746 4.0543155409 
Al 2.0256607281 12.1721897610 6.0838847719 
Al 0.0000000000 14.2003767811 6.0856977330 
Al 0.0000000000 12.1714579089 8.1139995846 
Al 2.0277192275 14.2002794125 8.1139995846 
Al 2.0256607281 12.1721897610 10.1441143973 
Al 0.0000000000 14.2003767811 10.1423014361 
Al 0.0000000000 12.1855594232 12.1855594232 
Al 2.0269037654 14.2010948746 12.1736830991 
Al 2.0269037654 12.1736830991 14.2010948746 
Al 0.0000000000 14.2351098565 14.2351098565 
Al 4.0528105609 0.0000000000 0.0000000000 
Al 6.0856977330 2.0276218589 0.0000000000 
Al 6.0856977330 0.0000000000 2.0276218589 
Al 4.0543155409 2.0269037654 2.0269037654 
Al 4.0424392167 0.0000000000 4.0424392167 
Al 6.0838847719 2.0256607281 4.0558088790 
Al 6.0830132170 0.0000000000 6.0830132170 
Al 4.0558088790 2.0256607281 6.0838847719 
Al 4.0565407311 0.0000000000 8.1139995846 
Al 6.0856606906 2.0255273755 8.1139995846 
Al 6.0830132170 0.0000000000 10.1449859521 
Al 4.0558088790 2.0256607281 10.1441143973 
Al 4.0424392167 0.0000000000 12.1855594232 
Al 6.0838847719 2.0256607281 12.1721897610 
Al 6.0856977330 0.0000000000 14.2003767811 
Al 4.0543155409 2.0269037654 14.2010948746 
Al 4.0424392167 4.0424392167 0.0000000000 
Al 6.0830132170 6.0830132170 0.0000000000 
Al 6.0838847719 4.0558088790 2.0256607281 
Al 4.0558088790 6.0838847719 2.0256607281 
Al 4.0585341416 4.0585341416 4.0585341416 
Al 6.0815129996 6.0815129996 4.0465583322 
Al 6.0815129996 4.0465583322 6.0815129996 
Al 4.0465583322 6.0815129996 6.0815129996 
Al 4.0488459652 4.0488459652 8.1139995846 
Al 6.0607163352 6.0607163352 8.1139995846 
Al 6.0815129996 4.0465583322 10.1464861695 
Al 4.0465583322 6.0815129996 10.1464861695 
Al 4.0585341416 4.0585341416 12.1694650275 
Al 6.0815129996 6.0815129996 12.1814408370 
Al 6.0838847719 4.0558088790 14.2023379119 
Al 4.0558088790 6.0838847719 14.2023379119 
Al 4.0565407311 8.1139995846 0.0000000000 
Al 6.0830132170 10.1449859521 0.0000000000 
Al 6.0856606906 8.1139995846 2.0255273755 
Al 4.0558088790 10.1441143973 2.0256607281 
Al 4.0488459652 8.1139995846 4.0488459652 
Al 6.0815129996 10.1464861695 4.0465583322 
Al 6.0607163352 8.1139995846 6.0607163352 
Al 4.0465583322 10.1464861695 6.0815129996 
Al 4.0551691037 8.1139995846 8.1139995846 
Al 6.0607163352 10.1672823047 8.1139995846 
Al 6.0607163352 8.1139995846 10.1672823047 
Al 4.0465583322 10.1464861695 10.1464861695 
Al 4.0488459652 8.1139995846 12.1791526747 
Al 6.0815129996 10.1464861695 12.1814408370 
Al 6.0856606906 8.1139995846 14.2024717937 
Al 4.0558088790 10.1441143973 14.2023379119 
Al 4.0424392167 12.1855594232 0.0000000000 
Al 6.0856977330 14.2003767811 0.0000000000 
Al 6.0838847719 12.1721897610 2.0256607281 
Al 4.0543155409 14.2010948746 2.0269037654 
Al 4.0585341416 12.1694650275 4.0585341416 
Al 6.0838847719 14.2023379119 4.0558088790 
Al 6.0815129996 12.1814408370 6.0815129996 
Al 4.0558088790 14.2023379119 6.0838847719 
Al 4.0488459652 12.1791526747 8.1139995846 
Al 6.0856606906 14.2024717937 8.1139995846 
Al 6.0815129996 12.1814408370 10.1464861695 
Al 4.0558088790 14.2023379119 10.1441143973 
Al 4.0585341416 12.1694650275 12.1694650275 
Al 6.0838847719 14.2023379119 12.1721897610 
Al 6.0838847719 12.1721897610 14.2023379119 
Al 4.0543155409 14.2010948746 14.2010948746 
Al 8.1139995846 0.0000000000 0.0000000000 
Al 10.1423014361 2.0276218589 0.0000000000 
Al 10.1423014361 0.0000000000 2.0276218589 
Al 8.1139995846 2.0277192275 2.0277192275 
Al 8.1139995846 0.0000000000 4.0565407311 
Al 10.1441143973 2.0256607281 4.0558088790 
Al 10.1449859521 0.0000000000 6.0830132170 
Al 8.1139995846 2.0255273755 6.0856606906 
Al 8.1139995846 0.0000000000 8.1139995846 
Al 10.1423379494 2.0255273755 8.1139995846 
Al 10.1449859521 0.0000000000 10.1449859521 
Al 8.1139995846 2.0255273755 10.1423379494 
Al 8.1139995846 0.0000000000 12.1714579089 
Al 10.1441143973 2.0256607281 12.1721897610 
Al 10.1423014361 0.0000000000 14.2003767811 
Al 8.1139995846 2.0277192275 14.2002794125 
Al 8.1139995846 4.0565407311 0.0000000000 
Al 10.1449859521 6.0830132170 0.0000000000 
Al 10.1441143973 4.0558088790 2.0256607281 
Al 8.1139995846 6.0856606906 2.0255273755 
Al 8.1139995846 4.0488459652 4.0488459652 
Al 10.1464861695 6.0815129996 4.0465583322 
Al 10.1464861695 4.0465583322 6.0815129996 
Al 8.1139995846 6.0607163352 6.0607163352 
Al 8.1139995846 4.0551691037 8.1139995846 
Al 10.1672823047 6.0607163352 8.1139995846 
Al 10.1464861695 4.0465583322 10.1464861695 
Al 8.1139995846 6.0607163352 10.1672823047 
Al 8.1139995846 4.0488459652 12.1791526747 
Al 10.1464861695 6.0815129996 12.1814408370 
Al 10.1441143973 4.0558088790 14.2023379119 
Al 8.1139995846 6.0856606906 14.2024717937 
Al 8.1139995846 8.1139995846 0.0000000000 
Al 10.1449859521 10.1449859521 0.0000000000 
Al 10.1423379494 8.1139995846 2.0255273755 
Al 8.1139995846 10.1423379494 2.0255273755 
Al 8.1139995846 8.1139995846 4.0551691037 
Al 10.1464861695 10.1464861695 4.0465583322 
Al 10.1672823047 8.1139995846 6.0607163352 
Al 8.1139995846 10.1672823047 6.0607163352 
Mg 8.1139995846 8.1139995846 8.1139995846 
Al 10.1672823047 10.1672823047 8.1139995846 
Al 10.1672823047 8.1139995846 10.1672823047 
Al 8.1139995846 10.1672823047 10.1672823047 
Al 8.1139995846 8.1139995846 12.1728295362 
Al 10.1464861695 10.1464861695 12.1814408370 
Al 10.1423379494 8.1139995846 14.2024717937 
Al 8.1139995846 10.1423379494 14.2024717937 
Al 8.1139995846 12.1714579089 0.0000000000 
Al 10.1423014361 14.2003767811 0.0000000000 
Al 10.1441143973 12.1721897610 2.0256607281 
Al 8.1139995846 14.2002794125 2.0277192275 
Al 8.1139995846 12.1791526747 4.0488459652 
Al 10.1441143973 14.2023379119 4.0558088790 
Al 10.1464861695 12.1814408370 6.0815129996 
Al 8.1139995846 14.2024717937 6.0856606906 
Al 8.1139995846 12.1728295362 8.1139995846 
Al 10.1423379494 14.2024717937 8.1139995846 
Al 10.1464861695 12.1814408370 10.1464861695 
Al 8.1139995846 14.2024717937 10.1423379494 
Al 8.1139995846 12.1791526747 12.1791526747 
Al 10.1441143973 14.2023379119 12.1721897610 
Al 10.1441143973 12.1721897610 14.2023379119 
Al 8.1139995846 14.2002794125 14.2002794125 
Al 12.1751880791 0.0000000000 0.0000000000 
Al 14.2351098565 1.9928893126 0.0000000000 
Al 14.2351098565 0.0000000000 1.9928893126 
Al 12.1736830991 2.0269037654 2.0269037654 
Al 12.1855594232 0.0000000000 4.0424392167 
Al 14.2010948746 2.0269037654 4.0543155409 
Al 14.2003767811 0.0000000000 6.0856977330 
Al 12.1721897610 2.0256607281 6.0838847719 
Al 12.1714579089 0.0000000000 8.1139995846 
Al 14.2002794125 2.0277192275 8.1139995846 
Al 14.2003767811 0.0000000000 10.1423014361 
Al 12.1721897610 2.0256607281 10.1441143973 
Al 12.1855594232 0.0000000000 12.1855594232 
Al 14.2010948746 2.0269037654 12.1736830991 
Al 14.2351098565 0.0000000000 14.2351098565 
Al 12.1736830991 2.0269037654 14.2010948746 
Al 12.1855594232 4.0424392167 0.0000000000 
Al 14.2003767811 6.0856977330 0.0000000000 
Al 14.2010948746 4.0543155409 2.0269037654 
Al 12.1721897610 6.0838847719 2.0256607281 
Al 12.1694650275 4.0585341416 4.0585341416 
Al 14.2023379119 6.0838847719 4.0558088790 
Al 14.2023379119 4.0558088790 6.0838847719 
Al 12.1814408370 6.0815129996 6.0815129996 
Al 12.1791526747 4.0488459652 8.1139995846 
Al 14.2024717937 6.0856606906 8.1139995846 
Al 14.2023379119 4.0558088790 10.1441143973 
Al 12.1814408370 6.0815129996 10.1464861695 
Al 12.1694650275 4.0585341416 12.1694650275 
Al 14.2023379119 6.0838847719 12.1721897610 
Al 14.2010948746 4.0543155409 14.2010948746 
Al 12.1721897610 6.0838847719 14.2023379119 
Al 12.1714579089 8.1139995846 0.0000000000 
Al 14.2003767811 10.1423014361 0.0000000000 
Al 14.2002794125 8.1139995846 2.0277192275 
Al 12.1721897610 10.1441143973 2.0256607281 
Al 12.1791526747 8.1139995846 4.0488459652 
Al 14.2023379119 10.1441143973 4.0558088790 
Al 14.2024717937 8.1139995846 6.0856606906 
Al 12.1814408370 10.1464861695 6.0815129996 
Al 12.1728295362 8.1139995846 8.1139995846 
Al 14.2024717937 10.1423379494 8.1139995846 
Al 14.2024717937 8.1139995846 10.1423379494 
Al 12.1814408370 10.1464861695 10.1464861695 
Al 12.1791526747 8.1139995846 12.1791526747 
Al 14.2023379119 10.1441143973 12.1721897610 
Al 14.2002794125 8.1139995846 14.2002794125 
Al 12.1721897610 10.1441143973 14.2023379119 
Al 12.1855594232 12.1855594232 0.0000000000 
Al 14.2351098565 14.2351098565 0.0000000000 
Al 14.2010948746 12.1736830991 2.0269037654 
Al 12.1736830991 14.2010948746 2.0269037654 
Al 12.1694650275 12.1694650275 4.0585341416 
Al 14.2010948746 14.2010948746 4.0543155409 
Al 14.2023379119 12.1721897610 6.0838847719 
Al 12.1721897610 14.2023379119 6.0838847719 
Al 12.1791526747 12.1791526747 8.1139995846 
Al 14.2002794125 14.2002794125 8.1139995846 
Al 14.2023379119 12.1721897610 10.1441143973 
Al 12.1721897610 14.2023379119 10.1441143973 
Al 12.1694650275 12.1694650275 12.1694650275 
Al 14.2010948746 14.2010948746 12.1736830991 
Al 14.2010948746 12.1736830991 14.2010948746 
Al 12.1736830991 14.2010948746 14.2010948746 

