&CONTROL
  calculation = 'scf'
  outdir = './out/'
  prefix = 'aiida'
  pseudo_dir = '/users/aglensk/Dropbox/Albert/scripts/dotfiles/scripts/potentials/quantum_espresso/pseudo_SSSPefV1.1_alalloy'
  tprnfor = .true.             	! calculate the pressure of the cell
  tstress = .true.
  verbosity = 'high'
  wf_collect = .true.
  etot_conv_thr = 2.5d-4    ! EDIFFG positive atomic units
  forc_conv_thr = 2.0d-5
/
&SYSTEM
  degauss =   4.4100000000d-02  ! SIGMA in Rydberg  so, 0.60001101eV
  ecutrho = 400                 ! AUGMENTATION charges
  ecutwfc =  40                 ! ENCUT in Rydberg, so 544eV
  ibrav = 0                     ! no symmetry
   nat              = 264
   ntyp             = 3
  occupations = 'smearing'      ! using smearing 
  smearing = 'mp'               ! methfessel paxton
  nosym= .true. 		! no symmetry
/
&ELECTRONS
  conv_thr =   1.0000000000d-12   	! EDIFF
  mixing_beta =   4.0000000000d-01      ! MIXING
  mixing_mode = 'local-TF'                 ! MIXING
/
&IONS
  !press_conv_thr = 0.05                 ! just for volume relaxations
/
ATOMIC_SPECIES
Al 26.9815385 Al.pbe-n-kjpaw_psl.1.0.0.UPF
Mg 24.305 Mg.pbe-n-kjpaw_psl.0.3.0.UPF
Si 28.085 Si.pbe-n-rrkjus_psl.1.0.0.UPF

K_POINTS automatic
6 2 13 0 0 0
CELL_PARAMETERS angstrom
8.11399588033381 0.00000000000000 12.17099329132350
0.00000000000000 49.94532472698886 0.00000000000000
-6.08549717483896 0.00000000000000 2.02849870549485

ATOMIC_POSITIONS angstrom
Al -5.9677213781 0.3068651018 2.0223157990 
Mg -1.5558810136 1.9761360913 1.6652862851 
Mg -4.1997990563 2.0138748933 3.7061142904 
Mg 2.3236472947 49.9315560651 4.4074005678 
Mg -0.3485716745 49.9331414801 6.4863542036 
Si -3.4936962080 49.7583907606 2.0489154206 
Si 0.2245457658 49.8453700312 2.5933318765 
Al -1.9339633135 49.7607704706 4.0388164696 
Al 0.0539056949 2.0129033239 4.1171569222 
Si -2.0989702930 2.0682229803 5.4661963227 
Si 1.6094501518 2.1022146785 6.0434201781 
Al -1.9590785931 2.1289402443 8.1104022379 
Mg 2.4984440525 0.0018404783 7.6910435863 
Mg -0.1727546630 49.9027323117 9.7805680661 
Mg 6.3962035740 1.9669273495 10.4887945025 
Mg 3.7622483506 1.9776966349 12.4913735791 
Si 0.5554577384 2.0835728237 8.1516590099 
Si 4.2800699474 2.0549528034 8.7267735650 
Al 2.1208433038 1.9856485809 10.0718155609 
Al 4.1006016131 49.7542721744 10.1470809647 
Si 1.9557685897 49.7937662572 11.5956617736 
Si 5.7629615483 49.6256037940 12.0920114759 
Al -6.0001567661 4.0119019875 2.0177008445 
Mg -1.4459682610 6.2567780793 1.5484878787 
Mg -4.2388216422 6.2779123587 3.6711960030 
Mg 2.3681844363 4.1929737287 4.4127844167 
Mg -0.4122004715 4.2006393897 6.5226441184 
Si -3.4958324964 4.1408291355 2.0540156306 
Si 0.2436368920 4.1538151443 2.6388157161 
Al -1.9239660977 4.1755574483 3.9629567997 
Al 0.0541173658 6.2920583239 4.1287284402 
Si -2.1167342428 6.3086220998 5.4519715101 
Si 1.6184715648 6.3138911173 6.0433868400 
Al -1.9526041100 6.3168465720 8.1108377507 
Mg 2.5876098833 4.1979670448 7.6727314089 
Mg -0.1875642164 4.1798443129 9.7792805779 
Mg 6.4248802162 6.2625397608 10.5149723700 
Mg 3.6303080675 6.2596324612 12.6364284610 
Si 0.5623370421 6.3051872105 8.1498619241 
Si 4.2990213708 6.2998446374 8.7388335136 
Al 2.1289868119 6.2803031814 10.0631317629 
Al 4.1093997134 4.1636112728 10.2239677675 
Si 1.9408960642 4.1325004154 11.5463588621 
Si 5.6923936506 4.1133050413 12.1251660157 
Al -6.0079743010 8.3999886454 2.0225941462 
Mg -1.4589907830 10.5309614594 1.5668487404 
Mg -4.2406086736 10.5384165079 3.6775768218 
Mg 2.3656872490 8.4319472447 4.4227297732 
Mg -0.4144219574 8.4305576254 6.5309437337 
Si -3.4950445515 8.4084385471 2.0571959856 
Si 0.2453493094 8.4161237878 2.6441111925 
Al -1.9252244811 8.4222442514 3.9588943063 
Al 0.0516207077 10.5451418211 4.1386902012 
Si -2.1189678998 10.5494138687 5.4561461891 
Si 1.6211830689 10.5581034877 6.0447447087 
Al -1.9515415221 10.5510950647 8.1098608896 
Mg 2.5956597271 8.4307825257 7.6608085172 
Mg -0.1840965181 8.4246599453 9.7681874361 
Mg 6.4229275523 10.5297406476 10.5123243672 
Mg 3.6405063707 10.5324553267 12.6222623871 
Si 0.5612696917 10.5506341514 8.1456978287 
Si 4.3008364487 10.5444480698 8.7347101648 
Al 2.1303150467 10.5402606905 10.0521492190 
Al 4.1067734069 8.4156782205 10.2300728850 
Si 1.9365213562 8.4086205841 11.5446586157 
Si 5.6782577397 8.3940660941 12.1302794551 
Al -6.0089845003 12.6587666186 2.0240975386 
Mg -1.4615710511 14.7808016295 1.5747027886 
Mg -4.2421872092 14.7871231804 3.6830585686 
Mg 2.3658602900 12.6821393176 4.4271277650 
Mg -0.4166381515 12.6802480383 6.5370933021 
Si -3.4962309668 12.6625216601 2.0599858079 
Si 0.2434151667 12.6681203550 2.6496252190 
Al -1.9274009869 12.6725162300 3.9666097100 
Al 0.0482895372 14.7966928211 4.1462664313 
Si -2.1217725390 14.8037023024 5.4596461672 
Si 1.6201987993 14.8174720226 6.0452209682 
Al -1.9516335990 14.8133248608 8.1082257320 
Mg 2.5982167113 12.6814392162 7.6521517072 
Mg -0.1840340752 12.6748308512 9.7625612240 
Mg 6.4224798684 14.7799819340 10.5073601558 
Mg 3.6411853051 14.7812440216 12.6162996183 
Si 0.5617702933 14.8062031939 8.1422502391 
Si 4.3024880107 14.7973712263 8.7291109407 
Al 2.1320502188 14.7909750613 10.0426213833 
Al 4.1085398005 12.6681970856 10.2237486882 
Si 1.9376045819 12.6633461182 11.5408077932 
Si 5.6777486713 12.6539542810 12.1299529528 
Al -6.0108297413 16.8932548286 2.0246193074 
Mg -1.4709078538 19.0095128119 1.5850302110 
Mg -4.2469196410 19.0276815822 3.6928711016 
Mg 2.3647617181 16.9482590954 4.4281284391 
Mg -0.4350228262 16.9578350862 6.5575597599 
Si -3.4955388030 16.9043103989 2.0639488160 
Si 0.2395034888 16.9092455055 2.6524330333 
Al -1.9298727737 16.9306126229 3.9782256790 
Al 0.0488684570 19.0432393922 4.1380393133 
Si -2.1193547283 19.0784143306 5.4618258481 
Si 1.6332530719 19.0904113071 6.0400556694 
Al -1.9476885828 19.2630373800 8.1029403101 
Mg 2.6162198492 16.9599936000 7.6270665907 
Mg -0.1821311540 16.9361118325 9.7575869582 
Mg 6.4225412530 19.0160756676 10.4969337772 
Mg 3.6424061169 19.0071463314 12.6077729859 
Si 0.5544681770 19.0701681621 8.1401065423 
Si 4.2979672498 19.0603032405 8.7221903612 
Al 2.1306071525 19.0335443365 10.0478739963 
Al 4.1098791480 16.9211213005 10.2124205916 
Si 1.9397599207 16.9021243678 11.5373305697 
Si 5.6738137095 16.8958906603 12.1277579257 
Al -6.0187520533 21.0821300798 2.0235165021 
Mg -1.5636271096 23.2046699257 1.6080240192 
Mg -4.2314766625 23.2441211451 3.6948391116 
Mg 2.3256020753 21.2337917391 4.3910659257 
Mg -0.2836231095 21.2323301517 6.3861206315 
Si -3.5043628330 21.1209933833 2.0639059527 
Si 0.2152169007 21.1503590142 2.6374964773 
Al -1.9413897865 21.2213010402 3.9844853162 
Al 0.0410742059 23.3955954757 4.0620568743 
Si -2.1048155844 23.3542656772 5.5173450044 
Si 1.7046073269 23.5144502648 6.0140857686 
Al -1.9268633429 22.8386311698 8.1069101975 
Mg 2.4747787185 21.2322550085 7.7745022409 
Mg -0.1412665022 21.1967244631 9.8020542484 
Mg 6.3744713243 23.2204108310 10.4896052020 
Mg 3.7089903686 23.2174040461 12.5664511250 
Si 0.5353394792 23.4085830720 8.1340199460 
Si 4.2713665698 23.3110017360 8.6695001863 
Al 2.1140275013 23.3900295898 10.1212338330 
Al 4.1079201340 21.1983167573 10.2021492620 
Si 1.9573428919 21.1399966661 11.5534826457 
Si 5.6641117745 21.1044777625 12.1270223694 
Al -4.0502916774 29.5482828102 2.0191132185 
Al 2.0298856790 27.5400272497 14.1813957237 
Al -4.0476309744 27.5162968269 4.0518591003 
Al 0.0098262916 29.5283762219 2.0197519354 
Al 2.0184861435 29.5085585353 4.0515220144 
Al 0.0017849147 27.4631314509 4.0555077771 
Al 1.9848347063 27.4713088263 6.0536756325 
Al 2.0306037724 29.4851424438 8.0925028187 
Al 2.0238557046 27.4779859843 10.1300134121 
Al 4.0553347362 27.5457635307 12.1493732272 
Al 2.0192127038 29.5307850365 12.1533833321 
Al 6.0782389802 29.5476419766 12.1464966199 
Al -2.0192465711 27.5513336500 2.0116089565 
Al -2.0167398587 29.5217974908 4.0482516992 
Al -0.0162346276 29.4913925558 6.0831894330 
Al -2.0566646917 27.4767911022 6.0489252086 
Al 0.0095273065 27.4546265147 8.1227151332 
Al 4.0482845082 29.4747790373 6.0737489116 
Al 0.0032883072 29.5046960709 10.1200331299 
Al 4.0872330093 27.4729117041 8.1276004972 
Al 4.0466636384 29.5189589842 10.1210787841 
Al 6.0837556526 27.4998087233 10.1134448737 
Al -4.0597284946 33.5510432613 2.0156656290 
Al 2.0258898618 31.5420315066 14.1861673147 
Al -4.0562877844 31.5385262368 4.0511891619 
Al -0.0005397608 33.5506278572 2.0185231859 
Al 2.0264629608 33.5450291623 4.0495137869 
Al -0.0029438128 31.5314426706 4.0525465015 
Al 2.0225338200 31.5166066583 6.0776468309 
Al 2.0234149000 33.5400268501 8.0980295455 
Al 2.0246949797 31.5301541241 10.1199754496 
Al 4.0512129749 31.5428633732 12.1524159962 
Al 2.0218802861 33.5503685604 12.1538299577 
Al 6.0814034599 33.5515279876 12.1559466665 
Al -2.0273694413 31.5430549353 2.0172087097 
Al -2.0300190316 33.5484227758 4.0482342364 
Al -0.0045398113 33.5401490901 6.0754110572 
Al -2.0363929711 31.5225614895 6.0815140580 
Al -0.0049409276 31.5149593297 8.0977956492 
Al -2.0333274475 33.5397866037 8.1011548661 
Al -0.0065919605 33.5444909891 10.1231494545 
Al 4.0541160411 31.5210718556 8.0924922352 
Al 4.0505647328 33.5484021379 10.1239855545 
Al 6.0793650693 31.5383796547 10.1188816403 
Al -4.0624119522 37.5802287057 2.0148279414 
Al 2.0240737257 35.5650684409 14.1860683585 
Al -4.0613789983 35.5640518915 4.0453555124 
Al -0.0058971508 37.5787872269 2.0148051868 
Al 2.0241901446 37.5761365783 4.0412305760 
Al -0.0044249798 35.5624511304 4.0454121343 
Al 2.0238916887 35.5597528558 6.0732239678 
Al 2.0233270566 37.5755095033 8.1019253482 
Al 2.0236673176 35.5624246716 10.1276686279 
Al 4.0527417679 35.5643852731 12.1563631290 
Al 2.0239371979 37.5789089377 12.1588010484 
Al 6.0803789729 37.5802281765 12.1589232883 
Al -2.0332147328 35.5645403221 2.0162122690 
Al -2.0333480855 37.5778151284 4.0419481403 
Al -0.0042979773 37.5756936570 6.0705299266 
Al -2.0324447800 35.5614525730 6.0730879693 
Al -0.0049949037 35.5597528558 8.1000637027 
Al -2.0331718694 37.5749999056 8.1006103428 
Al -0.0051467775 37.5760651394 10.1311934773 
Al 4.0514140622 35.5614351102 8.1000917491 
Al 4.0517733736 37.5776722505 10.1314421906 
Al 6.0810123980 35.5640910506 10.1269526512 
Al -4.0641137861 41.6234791511 2.0132118342 
Al 2.0223168573 39.5993895501 14.1870076481 
Al -4.0641809916 39.5952069334 4.0385587603 
Al -0.0045969624 41.6182524678 2.0081687754 
Al 2.0211807138 41.6024390652 4.0343793187 
Al -0.0068470239 39.5913428814 4.0391022253 
Al 2.0236577924 39.5884498696 6.0704569002 
Al 2.0279589447 41.5980643572 8.1014326842 
Al 2.0252511450 39.5912560964 10.1335700122 
Al 4.0507049648 39.5992953565 12.1610315303 
Al 2.0173224828 41.6163527216 12.1664434257 
Al 6.0769123330 41.6217931925 12.1630334077 
Al -2.0344503616 39.5995197277 2.0131853754 
Al -2.0335661065 41.6096051830 4.0361345995 
Al -0.0070407028 41.5982786739 6.0676961827 
Al -2.0356002637 39.5898045633 6.0687926378 
Al -0.0036597896 39.5887594383 8.1011516911 
Al -2.0326892598 41.5994735561 8.1006616730 
Al -0.0015414932 41.6018204570 10.1351649523 
Al 4.0550421012 39.5894203806 8.1038875373 
Al 4.0511574113 41.6079996593 10.1366715198 
Al 6.0815352251 39.5946131966 10.1347416105 
Al -4.0525396222 45.6820355181 2.0389367260 
Al 8.1006643189 43.6634657646 12.1599181415 
Al -4.0560358960 43.6353029535 4.0359615585 
Al 0.0260630360 45.6652801801 2.0474458955 
Al 2.0251352551 45.6475961361 4.0270909609 
Al -0.0115244213 43.6221370245 4.0376475171 
Al 2.0193677527 43.5967105887 6.0601781620 
Al 2.0346699701 45.5945418873 8.0956434855 
Al 2.0365252654 43.6186433965 10.1307833650 
Al 4.0347248714 43.6450133553 12.1680166695 
Al 1.9955478989 45.6592872482 12.1300667259 
Al 6.0303309798 45.6608001658 12.1389579614 
Al -2.0291342473 43.6532092519 2.0088577641 
Al -2.0374412712 45.6637238699 4.0464905975 
Al -0.0040265094 45.6010629381 6.0626610615 
Al -2.0396929202 43.6123678840 6.0683714128 
Al 0.0043149110 43.5954077544 8.1033514807 
Al -2.0302259399 45.6066425826 8.0945592014 
Al 0.0043768247 45.6274196674 10.1354898671 
Al 4.0638433766 43.6149597940 8.1041891683 
Al 4.0541366790 45.6802177944 10.1404837124 
Al 6.0707161970 43.6301540592 10.1350887508 
Al -4.0601259067 25.5792240680 1.9969502186 
Al 8.0424542965 47.5737175725 12.1661063398 
Al -4.0960988443 47.8049902390 4.0349794056 
Al 0.0484488195 25.5203874999 2.0362934858 
Al 2.0641155068 25.3985989524 4.0103075765 
Al 0.0233488861 47.6919601035 4.1225799302 
Al 2.0423980741 47.5845397757 6.0849071422 
Al 2.0920068501 25.5231625052 8.1131751265 
Al 2.0257803222 47.6828524346 10.0190788184 
Al 3.9378785625 47.6809828515 12.1925614961 
Al 2.0095943788 25.5131859272 12.1209669945 
Al 6.1022990805 25.5639181464 12.1721807650 
Al -1.9774590344 47.6131767296 2.0292649541 
Al -2.0278250629 25.4614869013 3.9322486462 
Al -0.1106334919 25.4642809569 6.1023715777 
Al -2.0490418940 47.6343168300 6.0297843398 
Al -0.0068549616 47.5665990807 8.0824346931 
Al 4.0007897952 25.5354500000 6.0800873962 
Al -0.0324888348 25.3484080815 10.1287730208 
Al 4.1016218668 47.6258245941 8.1231416501 
Al 4.0825857750 25.4542837411 10.2140991417 
Al 6.1156105332 47.7410047766 10.0953136749 

