 vorlage
1.0
  8.26   0.0000000000    0.0000000000
   0.0000000000   8.26    0.0000000000
   0.0000000000    0.0000000000   8.26 
32
Direct
0 0 0
0 0 0.5
0 0.5 0
0 0.5 0.5
0.5 0 0
0.5 0 0.5
0.5 0.5 0
0.5 0.5 0.5
0 0.25 0.25
0 0.25 0.75
0 0.75 0.25
0 0.75 0.75
0.5 0.25 0.25
0.5 0.25 0.75
0.5 0.75 0.25
0.5 0.75 0.75
0.25 0 0.25
0.25 0 0.75
0.25 0.5 0.25
0.25 0.5 0.75
0.75 0 0.25
0.75 0 0.75
0.75 0.5 0.25
0.75 0.5 0.75
0.25 0.25 0
0.25 0.25 0.5
0.25 0.75 0
0.25 0.75 0.5
0.75 0.25 0
0.75 0.25 0.5
0.75 0.75 0
0.75 0.75 0.5
