&CONTROL
  calculation = 'scf'
  outdir = './out/'
  prefix = 'aiida'
  pseudo_dir = '/users/aglensk/Dropbox/Albert/scripts/dotfiles/scripts/potentials/quantum_espresso/pseudo_SSSPefV1.1_alalloy'
  tprnfor = .true.             	! calculate the pressure of the cell
  tstress = .true.
  verbosity = 'high'
  wf_collect = .true.
  etot_conv_thr = 2.5d-4    ! EDIFFG positive atomic units
  forc_conv_thr = 2.0d-5
/
&SYSTEM
  degauss =   4.4100000000d-02  ! SIGMA in Rydberg  so, 0.60001101eV
  ecutrho = 400                 ! AUGMENTATION charges
  ecutwfc =  40                 ! ENCUT in Rydberg, so 544eV
  ibrav = 0                     ! no symmetry
   nat              = 256
   ntyp             = 2
  occupations = 'smearing'      ! using smearing 
  smearing = 'mp'               ! methfessel paxton
  nosym= .true. 		! no symmetry
/
&ELECTRONS
  conv_thr =   1.0000000000d-12   	! EDIFF
  mixing_beta =   4.0000000000d-01      ! MIXING
  mixing_mode = 'local-TF'                 ! MIXING
/
&IONS
  !press_conv_thr = 0.05                 ! just for volume relaxations
/
ATOMIC_SPECIES
Si 28.085 Si.pbe-n-rrkjus_psl.1.0.0.UPF
Al 26.9815385 Al.pbe-n-kjpaw_psl.1.0.0.UPF

K_POINTS automatic
5 5 5 0 0 0
CELL_PARAMETERS angstrom
16.22799863997135 0.00000000000000 0.00000000000000
0.00000000000000 16.22799863997135 0.00000000000000
0.00000000000000 0.00000000000000 16.22799863997135

ATOMIC_POSITIONS angstrom
Si 0.0000000000 0.0000000000 0.0000000000 
Al 2.0171330374 0.0000000000 2.0171330374 
Al 2.0171330374 2.0171330374 0.0000000000 
Al 0.0000000000 2.0171330374 2.0171330374 
Al 0.0000000000 0.0000000000 4.0520649502 
Al 2.0283854616 2.0283854616 4.0558580925 
Al 2.0282690426 0.0000000000 6.0848007776 
Al 0.0000000000 2.0282690426 6.0848007776 
Al 0.0000000000 0.0000000000 8.1139995846 
Al 2.0284198581 2.0284198581 8.1139995846 
Al 2.0282690426 0.0000000000 10.1431978623 
Al 0.0000000000 2.0282690426 10.1431978623 
Al 0.0000000000 0.0000000000 12.1759336898 
Al 2.0283854616 2.0283854616 12.1721410767 
Al 2.0171330374 0.0000000000 14.2108656026 
Al 0.0000000000 2.0171330374 14.2108656026 
Al 0.0000000000 4.0520649502 0.0000000000 
Al 2.0282690426 6.0848007776 0.0000000000 
Al 2.0283854616 4.0558580925 2.0283854616 
Al 0.0000000000 6.0848007776 2.0282690426 
Al 0.0000000000 4.0552595930 4.0552595930 
Al 2.0284023952 6.0855998352 4.0570016444 
Al 2.0284023952 4.0570016444 6.0855998352 
Al 0.0000000000 6.0855834307 6.0855834307 
Al 0.0000000000 4.0570016444 8.1139995846 
Al 2.0292003945 6.0857347754 8.1139995846 
Al 2.0284023952 4.0570016444 10.1423993339 
Al 0.0000000000 6.0855834307 10.1424152092 
Al 0.0000000000 4.0552595930 12.1727390469 
Al 2.0284023952 6.0855998352 12.1709975247 
Al 2.0283854616 4.0558580925 14.1996131784 
Al 0.0000000000 6.0848007776 14.1997295974 
Al 0.0000000000 8.1139995846 0.0000000000 
Al 2.0282690426 10.1431978623 0.0000000000 
Al 2.0284198581 8.1139995846 2.0284198581 
Al 0.0000000000 10.1431978623 2.0282690426 
Al 0.0000000000 8.1139995846 4.0570016444 
Al 2.0284023952 10.1423993339 4.0570016444 
Al 2.0292003945 8.1139995846 6.0857347754 
Al 0.0000000000 10.1424152092 6.0855834307 
Al 0.0000000000 8.1139995846 8.1139995846 
Al 2.0292003945 10.1422643937 8.1139995846 
Al 2.0292003945 8.1139995846 10.1422643937 
Al 0.0000000000 10.1424152092 10.1424152092 
Al 0.0000000000 8.1139995846 12.1709969956 
Al 2.0284023952 10.1423993339 12.1709975247 
Al 2.0284198581 8.1139995846 14.1995793111 
Al 0.0000000000 10.1431978623 14.1997295974 
Al 0.0000000000 12.1759336898 0.0000000000 
Al 2.0171330374 14.2108656026 0.0000000000 
Al 2.0283854616 12.1721410767 2.0283854616 
Al 0.0000000000 14.2108656026 2.0171330374 
Al 0.0000000000 12.1727390469 4.0552595930 
Al 2.0283854616 14.1996131784 4.0558580925 
Al 2.0284023952 12.1709975247 6.0855998352 
Al 0.0000000000 14.1997295974 6.0848007776 
Al 0.0000000000 12.1709969956 8.1139995846 
Al 2.0284198581 14.1995793111 8.1139995846 
Al 2.0284023952 12.1709975247 10.1423993339 
Al 0.0000000000 14.1997295974 10.1431978623 
Al 0.0000000000 12.1727390469 12.1727390469 
Al 2.0283854616 14.1996131784 12.1721410767 
Al 2.0283854616 12.1721410767 14.1996131784 
Al 0.0000000000 14.2108656026 14.2108656026 
Al 4.0520649502 0.0000000000 0.0000000000 
Al 6.0848007776 2.0282690426 0.0000000000 
Al 6.0848007776 0.0000000000 2.0282690426 
Al 4.0558580925 2.0283854616 2.0283854616 
Al 4.0552595930 0.0000000000 4.0552595930 
Al 6.0855998352 2.0284023952 4.0570016444 
Al 6.0855834307 0.0000000000 6.0855834307 
Al 4.0570016444 2.0284023952 6.0855998352 
Al 4.0570016444 0.0000000000 8.1139995846 
Al 6.0857347754 2.0292003945 8.1139995846 
Al 6.0855834307 0.0000000000 10.1424152092 
Al 4.0570016444 2.0284023952 10.1423993339 
Al 4.0552595930 0.0000000000 12.1727390469 
Al 6.0855998352 2.0284023952 12.1709975247 
Al 6.0848007776 0.0000000000 14.1997295974 
Al 4.0558580925 2.0283854616 14.1996131784 
Al 4.0552595930 4.0552595930 0.0000000000 
Al 6.0855834307 6.0855834307 0.0000000000 
Al 6.0855998352 4.0570016444 2.0284023952 
Al 4.0570016444 6.0855998352 2.0284023952 
Al 4.0570011152 4.0570011152 4.0570011152 
Al 6.0856157105 6.0856157105 4.0581420213 
Al 6.0856157105 4.0581420213 6.0856157105 
Al 4.0581420213 6.0856157105 6.0856157105 
Al 4.0587421083 4.0587421083 8.1139995846 
Al 6.0968639013 6.0968639013 8.1139995846 
Al 6.0856157105 4.0581420213 10.1423834586 
Al 4.0581420213 6.0856157105 10.1423834586 
Al 4.0570011152 4.0570011152 12.1709975247 
Al 6.0856157105 6.0856157105 12.1698566187 
Al 6.0855998352 4.0570016444 14.1995967739 
Al 4.0570016444 6.0855998352 14.1995967739 
Al 4.0570016444 8.1139995846 0.0000000000 
Al 6.0855834307 10.1424152092 0.0000000000 
Al 6.0857347754 8.1139995846 2.0292003945 
Al 4.0570016444 10.1423993339 2.0284023952 
Al 4.0587421083 8.1139995846 4.0587421083 
Al 6.0856157105 10.1423834586 4.0581420213 
Al 6.0968639013 8.1139995846 6.0968639013 
Al 4.0581420213 10.1423834586 6.0856157105 
Al 4.0619309301 8.1139995846 8.1139995846 
Al 6.0968639013 10.1311347386 8.1139995846 
Al 6.0968639013 8.1139995846 10.1311347386 
Al 4.0581420213 10.1423834586 10.1423834586 
Al 4.0587421083 8.1139995846 12.1692565317 
Al 6.0856157105 10.1423834586 12.1698566187 
Al 6.0857347754 8.1139995846 14.1987987747 
Al 4.0570016444 10.1423993339 14.1995967739 
Al 4.0552595930 12.1727390469 0.0000000000 
Al 6.0848007776 14.1997295974 0.0000000000 
Al 6.0855998352 12.1709975247 2.0284023952 
Al 4.0558580925 14.1996131784 2.0283854616 
Al 4.0570011152 12.1709975247 4.0570011152 
Al 6.0855998352 14.1995967739 4.0570016444 
Al 6.0856157105 12.1698566187 6.0856157105 
Al 4.0570016444 14.1995967739 6.0855998352 
Al 4.0587421083 12.1692565317 8.1139995846 
Al 6.0857347754 14.1987987747 8.1139995846 
Al 6.0856157105 12.1698566187 10.1423834586 
Al 4.0570016444 14.1995967739 10.1423993339 
Al 4.0570011152 12.1709975247 12.1709975247 
Al 6.0855998352 14.1995967739 12.1709975247 
Al 6.0855998352 12.1709975247 14.1995967739 
Al 4.0558580925 14.1996131784 14.1996131784 
Al 8.1139995846 0.0000000000 0.0000000000 
Al 10.1431978623 2.0282690426 0.0000000000 
Al 10.1431978623 0.0000000000 2.0282690426 
Al 8.1139995846 2.0284198581 2.0284198581 
Al 8.1139995846 0.0000000000 4.0570016444 
Al 10.1423993339 2.0284023952 4.0570016444 
Al 10.1424152092 0.0000000000 6.0855834307 
Al 8.1139995846 2.0292003945 6.0857347754 
Al 8.1139995846 0.0000000000 8.1139995846 
Al 10.1422643937 2.0292003945 8.1139995846 
Al 10.1424152092 0.0000000000 10.1424152092 
Al 8.1139995846 2.0292003945 10.1422643937 
Al 8.1139995846 0.0000000000 12.1709969956 
Al 10.1423993339 2.0284023952 12.1709975247 
Al 10.1431978623 0.0000000000 14.1997295974 
Al 8.1139995846 2.0284198581 14.1995793111 
Al 8.1139995846 4.0570016444 0.0000000000 
Al 10.1424152092 6.0855834307 0.0000000000 
Al 10.1423993339 4.0570016444 2.0284023952 
Al 8.1139995846 6.0857347754 2.0292003945 
Al 8.1139995846 4.0587421083 4.0587421083 
Al 10.1423834586 6.0856157105 4.0581420213 
Al 10.1423834586 4.0581420213 6.0856157105 
Al 8.1139995846 6.0968639013 6.0968639013 
Al 8.1139995846 4.0619309301 8.1139995846 
Al 10.1311347386 6.0968639013 8.1139995846 
Al 10.1423834586 4.0581420213 10.1423834586 
Al 8.1139995846 6.0968639013 10.1311347386 
Al 8.1139995846 4.0587421083 12.1692565317 
Al 10.1423834586 6.0856157105 12.1698566187 
Al 10.1423993339 4.0570016444 14.1995967739 
Al 8.1139995846 6.0857347754 14.1987987747 
Al 8.1139995846 8.1139995846 0.0000000000 
Al 10.1424152092 10.1424152092 0.0000000000 
Al 10.1422643937 8.1139995846 2.0292003945 
Al 8.1139995846 10.1422643937 2.0292003945 
Al 8.1139995846 8.1139995846 4.0619309301 
Al 10.1423834586 10.1423834586 4.0581420213 
Al 10.1311347386 8.1139995846 6.0968639013 
Al 8.1139995846 10.1311347386 6.0968639013 
Si 8.1139995846 8.1139995846 8.1139995846 
Al 10.1311347386 10.1311347386 8.1139995846 
Al 10.1311347386 8.1139995846 10.1311347386 
Al 8.1139995846 10.1311347386 10.1311347386 
Al 8.1139995846 8.1139995846 12.1660677098 
Al 10.1423834586 10.1423834586 12.1698566187 
Al 10.1422643937 8.1139995846 14.1987987747 
Al 8.1139995846 10.1422643937 14.1987987747 
Al 8.1139995846 12.1709969956 0.0000000000 
Al 10.1431978623 14.1997295974 0.0000000000 
Al 10.1423993339 12.1709975247 2.0284023952 
Al 8.1139995846 14.1995793111 2.0284198581 
Al 8.1139995846 12.1692565317 4.0587421083 
Al 10.1423993339 14.1995967739 4.0570016444 
Al 10.1423834586 12.1698566187 6.0856157105 
Al 8.1139995846 14.1987987747 6.0857347754 
Al 8.1139995846 12.1660677098 8.1139995846 
Al 10.1422643937 14.1987987747 8.1139995846 
Al 10.1423834586 12.1698566187 10.1423834586 
Al 8.1139995846 14.1987987747 10.1422643937 
Al 8.1139995846 12.1692565317 12.1692565317 
Al 10.1423993339 14.1995967739 12.1709975247 
Al 10.1423993339 12.1709975247 14.1995967739 
Al 8.1139995846 14.1995793111 14.1995793111 
Al 12.1759336898 0.0000000000 0.0000000000 
Al 14.2108656026 2.0171330374 0.0000000000 
Al 14.2108656026 0.0000000000 2.0171330374 
Al 12.1721410767 2.0283854616 2.0283854616 
Al 12.1727390469 0.0000000000 4.0552595930 
Al 14.1996131784 2.0283854616 4.0558580925 
Al 14.1997295974 0.0000000000 6.0848007776 
Al 12.1709975247 2.0284023952 6.0855998352 
Al 12.1709969956 0.0000000000 8.1139995846 
Al 14.1995793111 2.0284198581 8.1139995846 
Al 14.1997295974 0.0000000000 10.1431978623 
Al 12.1709975247 2.0284023952 10.1423993339 
Al 12.1727390469 0.0000000000 12.1727390469 
Al 14.1996131784 2.0283854616 12.1721410767 
Al 14.2108656026 0.0000000000 14.2108656026 
Al 12.1721410767 2.0283854616 14.1996131784 
Al 12.1727390469 4.0552595930 0.0000000000 
Al 14.1997295974 6.0848007776 0.0000000000 
Al 14.1996131784 4.0558580925 2.0283854616 
Al 12.1709975247 6.0855998352 2.0284023952 
Al 12.1709975247 4.0570011152 4.0570011152 
Al 14.1995967739 6.0855998352 4.0570016444 
Al 14.1995967739 4.0570016444 6.0855998352 
Al 12.1698566187 6.0856157105 6.0856157105 
Al 12.1692565317 4.0587421083 8.1139995846 
Al 14.1987987747 6.0857347754 8.1139995846 
Al 14.1995967739 4.0570016444 10.1423993339 
Al 12.1698566187 6.0856157105 10.1423834586 
Al 12.1709975247 4.0570011152 12.1709975247 
Al 14.1995967739 6.0855998352 12.1709975247 
Al 14.1996131784 4.0558580925 14.1996131784 
Al 12.1709975247 6.0855998352 14.1995967739 
Al 12.1709969956 8.1139995846 0.0000000000 
Al 14.1997295974 10.1431978623 0.0000000000 
Al 14.1995793111 8.1139995846 2.0284198581 
Al 12.1709975247 10.1423993339 2.0284023952 
Al 12.1692565317 8.1139995846 4.0587421083 
Al 14.1995967739 10.1423993339 4.0570016444 
Al 14.1987987747 8.1139995846 6.0857347754 
Al 12.1698566187 10.1423834586 6.0856157105 
Al 12.1660677098 8.1139995846 8.1139995846 
Al 14.1987987747 10.1422643937 8.1139995846 
Al 14.1987987747 8.1139995846 10.1422643937 
Al 12.1698566187 10.1423834586 10.1423834586 
Al 12.1692565317 8.1139995846 12.1692565317 
Al 14.1995967739 10.1423993339 12.1709975247 
Al 14.1995793111 8.1139995846 14.1995793111 
Al 12.1709975247 10.1423993339 14.1995967739 
Al 12.1727390469 12.1727390469 0.0000000000 
Al 14.2108656026 14.2108656026 0.0000000000 
Al 14.1996131784 12.1721410767 2.0283854616 
Al 12.1721410767 14.1996131784 2.0283854616 
Al 12.1709975247 12.1709975247 4.0570011152 
Al 14.1996131784 14.1996131784 4.0558580925 
Al 14.1995967739 12.1709975247 6.0855998352 
Al 12.1709975247 14.1995967739 6.0855998352 
Al 12.1692565317 12.1692565317 8.1139995846 
Al 14.1995793111 14.1995793111 8.1139995846 
Al 14.1995967739 12.1709975247 10.1423993339 
Al 12.1709975247 14.1995967739 10.1423993339 
Al 12.1709975247 12.1709975247 12.1709975247 
Al 14.1996131784 14.1996131784 12.1721410767 
Al 14.1996131784 12.1721410767 14.1996131784 
Al 12.1721410767 14.1996131784 14.1996131784 

