&CONTROL
  calculation = 'scf'
  outdir = './out/'
  prefix = 'aiida'
  pseudo_dir = '/users/aglensk/Dropbox/Albert/scripts/dotfiles/scripts/potentials/quantum_espresso/pseudo_SSSPefV1.1_alalloy'
  tprnfor = .true.             	! calculate the pressure of the cell
  tstress = .true.
  verbosity = 'high'
  wf_collect = .true.
  etot_conv_thr = 2.5d-4    ! EDIFFG positive atomic units
  forc_conv_thr = 2.0d-5
/
&SYSTEM
  degauss =   4.4100000000d-02  ! SIGMA in Rydberg  so, 0.60001101eV
  ecutrho = 400                 ! AUGMENTATION charges
  ecutwfc =  40                 ! ENCUT in Rydberg, so 544eV
  ibrav = 0                     ! no symmetry
   nat              = 176
   ntyp             = 3
  occupations = 'smearing'      ! using smearing 
  smearing = 'mp'               ! methfessel paxton
  nosym= .true. 		! no symmetry
/
&ELECTRONS
  conv_thr =   1.0000000000d-12   	! EDIFF
  mixing_beta =   4.0000000000d-01      ! MIXING
  mixing_mode = 'local-TF'                 ! MIXING
/
&IONS
  !press_conv_thr = 0.05                 ! just for volume relaxations
/
ATOMIC_SPECIES
Al 26.9815385 Al.pbe-n-kjpaw_psl.1.0.0.UPF
Mg 24.305 Mg.pbe-n-kjpaw_psl.0.3.0.UPF
Si 28.085 Si.pbe-n-rrkjus_psl.1.0.0.UPF

K_POINTS automatic
1 20 13 0 0 0
CELL_PARAMETERS angstrom
120.12844078104763 0.00000000000000 0.00000000000000
0.00000000000000 4.05703339504001 0.00000000000000
-1.68781388815663 0.00000000000000 6.18865074684859

ATOMIC_POSITIONS angstrom
Al 2.0149692318 0.0000000000 6.1265814351 
Mg 4.2090480156 2.0285166975 2.0874458717 
Mg 4.4970135533 2.0285166975 5.5701066181 
Mg 8.8950587972 0.0000000000 0.4913812575 
Mg 9.1800588259 0.0000000000 3.9691386479 
Si 3.4538126508 0.0000000000 4.0200671918 
Si 6.1451126918 0.0000000000 1.2792705604 
Al 5.9854837404 0.0000000000 3.8135552562 
Al 7.4148596500 2.0285166975 2.2563576498 
Si 7.2739910890 2.0285166975 4.7932173219 
Si 9.9507789742 2.0285166975 2.0230270131 
Al 9.7237275544 2.0285166975 6.1234614063 
Mg 11.9565230597 0.0000000000 2.0912686479 
Mg 12.2451267851 0.0000000000 5.5688868647 
Mg 1.0677118617 2.0285166975 0.5121821553 
Mg 1.4419364599 2.0285166975 3.9050521126 
Si 11.1924377352 2.0285166975 4.0410088507 
Si 13.8634560013 2.0285166975 1.2694770778 
Al 118.4390822246 2.0285166975 3.8001305596 
Al 15.1427598998 0.0000000000 2.2495513725 
Si -0.2850566506 0.0000000000 4.7881922551 
Si 2.1708219746 0.0000000000 2.0040835274 
Al 17.4527216135 0.0000000000 6.1178119104 
Mg 19.6828632951 2.0285166975 2.0846819791 
Mg 19.9703097100 2.0285166975 5.5625065750 
Mg 24.3471825737 0.0000000000 0.4818708846 
Mg 24.6328763536 0.0000000000 3.9603701815 
Si 18.9168131356 0.0000000000 4.0334215079 
Si 21.5882954901 0.0000000000 1.2633116341 
Al 21.4501855300 0.0000000000 3.7994368082 
Al 22.8663208966 2.0285166975 2.2448512205 
Si 22.7283903274 2.0285166975 4.7812425708 
Si 25.3988413156 2.0285166975 2.0121804679 
Al 25.1748368981 2.0285166975 6.1170647122 
Mg 27.4035752017 0.0000000000 2.0851963394 
Mg 27.6895102865 0.0000000000 5.5627468215 
Mg 16.6220102323 2.0285166975 0.4859593078 
Mg 16.9104700216 2.0285166975 3.9623445417 
Si 26.6374763580 2.0285166975 4.0326272129 
Si 29.3060752258 2.0285166975 1.2631121343 
Al 13.7255196112 2.0285166975 3.8054091022 
Al 30.5812843511 0.0000000000 2.2455814851 
Si 15.0056823644 0.0000000000 4.7856876594 
Si 17.6765000723 0.0000000000 2.0142548425 
Al 32.8849636730 0.0000000000 6.1174430739 
Mg 35.1112402442 2.0285166975 2.0855170208 
Mg 35.3946770834 2.0285166975 5.5630764989 
Mg 39.7630561237 0.0000000000 0.4820433964 
Mg 40.0460754420 0.0000000000 3.9594398880 
Si 34.3457996969 0.0000000000 4.0334125119 
Si 37.0100190942 0.0000000000 1.2627332434 
Al 36.8741179197 0.0000000000 3.7988488924 
Al 38.2828945480 2.0285166975 2.2459000497 
Si 38.1465689734 2.0285166975 4.7822675871 
Si 40.8108883851 2.0285166975 2.0121619467 
Al 40.5837036126 2.0285166975 6.1171255675 
Mg 42.8112629094 0.0000000000 2.0854625155 
Mg 43.0917569941 0.0000000000 5.5676575860 
Mg 32.0629472026 2.0285166975 0.4819576697 
Mg 32.3458363433 2.0285166975 3.9612401489 
Si 42.0453360483 2.0285166975 4.0342539037 
Si 44.7117827524 2.0285166975 1.2686870162 
Al 29.1688907966 2.0285166975 3.7994622087 
Al 45.9841073328 0.0000000000 2.2549516259 
Si 30.4441353768 0.0000000000 4.7819008672 
Si 33.1103434220 0.0000000000 2.0123736175 
Al 48.2896451249 0.0000000000 6.1376481181 
Mg 50.5183056395 2.0285166975 2.1071815358 
Mg 50.7940747009 2.0285166975 5.5916817022 
Mg 55.1919802420 0.0000000000 0.5243299473 
Mg 55.4747894770 0.0000000000 4.0123565507 
Si 49.7477564154 0.0000000000 4.0520231452 
Si 52.4212972693 0.0000000000 1.2913225714 
Al 52.2794417928 0.0000000000 3.8300883398 
Al 53.7019484530 2.0285166975 2.2780824910 
Si 53.5415950580 2.0285166975 4.8137631563 
Si 56.2295252985 2.0285166975 2.0786139040 
Al 55.9790180988 2.0285166975 6.1630068192 
Mg 58.2363393803 0.0000000000 2.1996319695 
Mg 58.6029078425 0.0000000000 5.5969607740 
Mg 47.4670830728 2.0285166975 0.4942515147 
Mg 47.7464108510 2.0285166975 3.9766212137 
Si 57.5069299801 2.0285166975 4.0986002649 
Si 59.9568897582 2.0285166975 1.3203288910 
Al 44.5737172431 2.0285166975 3.8058885368 
Al 61.3552574708 0.0000000000 2.3174088246 
Si 45.8451067673 0.0000000000 4.7927802215 
Si 48.5123964508 0.0000000000 2.0299190171 
Al 64.6510054180 0.0000000000 4.5060418457 
Al 63.5225281372 2.0285166975 6.1848972929 
Al 66.3335518762 2.0285166975 5.6215706894 
Al 66.8870744135 0.0000000000 1.1130840450 
Al 69.6943865036 0.0000000000 0.5564213701 
Al 68.5713237640 2.0285166975 2.2436880890 
Al 71.3734382755 2.0285166975 1.6831581871 
Al 73.0505908304 0.0000000000 2.8106543733 
Al 60.1379927209 2.0285166975 3.9257127785 
Al 63.0124335860 2.0285166975 3.4112308190 
Al 61.7362523621 0.0000000000 5.0598051587 
Al 64.0757855567 0.0000000000 1.6797391731 
Al 65.7765880995 2.0285166975 2.8053880017 
Al 67.4423898032 0.0000000000 3.9292392154 
Al 70.2486022630 0.0000000000 3.3690649205 
Al 69.1285579502 2.0285166975 5.0563416938 
Al 71.9305629221 2.0285166975 4.4979126254 
Al 70.8063423427 0.0000000000 6.1832875358 
Al 73.6087494892 0.0000000000 5.6257866442 
Al 74.1739525551 2.0285166975 1.1238819059 
Al 75.8530376652 0.0000000000 2.2515643626 
Al 62.4258512316 2.0285166975 0.5257518465 
Al 79.2130081462 0.0000000000 4.5066122988 
Al 79.7783419188 2.0285166975 0.0052420294 
Al 80.8929468191 2.0285166975 5.6323177494 
Al 81.4581975109 0.0000000000 1.1313803470 
Al 84.2601876658 0.0000000000 0.5680659146 
Al 83.1376964376 2.0285166975 2.2562380557 
Al 85.9401342764 2.0285166975 1.6921711333 
Al 87.6209413291 0.0000000000 2.8162419555 
Al 74.7309073358 2.0285166975 3.9386739159 
Al 77.5334658270 2.0285166975 3.3795447460 
Al 76.4100294883 0.0000000000 5.0665368220 
Al 78.6559491176 0.0000000000 1.6926341634 
Al 80.3360544813 2.0285166975 2.8193122417 
Al 82.0153316827 0.0000000000 3.9443599250 
Al 84.8174012142 0.0000000000 3.3803014694 
Al 83.6948448971 2.0285166975 5.0685831502 
Al 86.4979526743 2.0285166975 4.5044072173 
Al 87.0628863890 0.0000000000 0.0039450161 
Al 88.1791978857 0.0000000000 5.6285404824 
Al 88.7439627929 2.0285166975 1.1280534099 
Al 90.4255292149 0.0000000000 2.2522401219 
Al 76.9764745331 2.0285166975 0.5652607462 
Al 93.7904326858 0.0000000000 4.5011797655 
Al 94.3547059874 2.0285166975 0.0005656904 
Al 95.4736697203 2.0285166975 5.6259147051 
Al 96.0377980273 0.0000000000 1.1252122574 
Al 98.8448709293 0.0000000000 0.5618253277 
Al 97.7211652393 2.0285166975 2.2498598828 
Al 100.5288927335 2.0285166975 1.6861977810 
Al 102.2132754366 0.0000000000 2.8092589330 
Al 89.3023643441 2.0285166975 3.9404022087 
Al 92.1076761443 2.0285166975 3.3766056958 
Al 90.9842884899 0.0000000000 5.0646936978 
Al 93.2311669883 0.0000000000 1.6885764325 
Al 94.9141489593 2.0285166975 2.8132621586 
Al 96.5974362656 0.0000000000 3.9379267177 
Al 99.4045223970 0.0000000000 3.3742333944 
Al 98.2811008753 2.0285166975 5.0625489425 
Al 101.0891135960 2.0285166975 4.4978512409 
Al 99.9650808745 0.0000000000 6.1866414610 
Al 102.7738736024 0.0000000000 5.6190295804 
Al 103.3384527684 2.0285166975 1.1203083722 
Al 105.0238213287 0.0000000000 2.2392377087 
Al 91.5488073296 2.0285166975 0.5641314820 
Al 108.3925078875 0.0000000000 4.4732323295 
Al 107.2693694755 2.0285166975 6.1650621435 
Al 110.0772250306 2.0285166975 5.5923442321 
Al 110.6415295536 0.0000000000 1.0945400880 
Al 113.4416289583 0.0000000000 0.5197493894 
Al 112.3326597953 2.0285166975 2.2149214866 
Al 115.1292031292 2.0285166975 1.6281121153 
Al 116.7748902780 0.0000000000 2.7142298187 
Al 103.8992636634 2.0285166975 3.9296249856 
Al 106.7087236838 2.0285166975 3.3564339897 
Al 105.5842025318 0.0000000000 5.0466360546 
Al 107.8314869091 0.0000000000 1.6649539618 
Al 109.5181260239 2.0285166975 2.7848162377 
Al 111.2016128300 0.0000000000 3.9024088725 
Al 114.0032971204 0.0000000000 3.3315134473 
Al 112.8918275951 2.0285166975 5.0251810938 
Al 115.7133290429 2.0285166975 4.4486023054 
Al 114.5728436728 0.0000000000 6.1342142872 
Al 117.3703056583 0.0000000000 5.5920748809 
Al 118.0526262244 2.0285166975 1.0604965305 
Al -0.4679709869 0.0000000000 2.1873767545 
Al 106.1472756594 2.0285166975 0.5485630885 

