Al 
 1.0000000000000000
     4.0434381067003464    0.0000000000000000    0.0000000000000000
     0.0000000000000000    4.0434381067003464    0.0000000000000000
     0.0000000000000000    0.0000000000000000    4.0434381067003464
   4
Cartesian
  0.0000000000000000  0.0000000000000000  0.0000000000000000
  0.0000000000000000  2.0217190533501728  2.0217190533501728
  2.0217190533501728  0.0000000000000000  2.0217190533501728
  2.0217190533501728  2.0217190533501728  0.0000000000000000
