&CONTROL
  calculation = 'scf'
  outdir = './out/'
  prefix = 'aiida'
  pseudo_dir = '/users/aglensk/Dropbox/Albert/scripts/dotfiles/scripts/potentials/quantum_espresso/pseudo_SSSPefV1.1_alalloy'
  tprnfor = .true.             	! calculate the pressure of the cell
  tstress = .true.
  verbosity = 'high'
  wf_collect = .true.
  etot_conv_thr = 2.5d-4    ! EDIFFG positive atomic units
  forc_conv_thr = 2.0d-5
/
&SYSTEM
  degauss =   4.4100000000d-02  ! SIGMA in Rydberg  so, 0.60001101eV
  ecutrho = 400                 ! AUGMENTATION charges
  ecutwfc =  40                 ! ENCUT in Rydberg, so 544eV
  ibrav = 0                     ! no symmetry
   nat              = 100
   ntyp             = 3
  occupations = 'smearing'      ! using smearing 
  smearing = 'mp'               ! methfessel paxton
  nosym= .true. 		! no symmetry
/
&ELECTRONS
  conv_thr =   1.0000000000d-12   	! EDIFF
  mixing_beta =   4.0000000000d-01      ! MIXING
  mixing_mode = 'local-TF'                 ! MIXING
/
&IONS
  !press_conv_thr = 0.05                 ! just for volume relaxations
/
ATOMIC_SPECIES
Al 26.9815385 Al.pbe-n-kjpaw_psl.1.0.0.UPF
Mg 24.305 Mg.pbe-n-kjpaw_psl.0.3.0.UPF
Si 28.085 Si.pbe-n-rrkjus_psl.1.0.0.UPF

K_POINTS automatic
4 20 4 0 0 0
CELL_PARAMETERS angstrom
20.28499869684709 0.00000000000000 0.00000000000000
0.00000000000000 4.05699952769853 0.00000000000000
0.00000000000000 0.00000000000000 20.28499869684709

ATOMIC_POSITIONS angstrom
Al 1.9898740609 2.0242991552 20.2431339002 
Al 20.2560288905 4.0527417679 20.2427407215 
Al 1.9866815348 4.0528751205 1.9766483349 
Al 20.2563067085 2.0243287891 1.9787608103 
Al 1.9844616364 2.0244769587 3.9987069537 
Al 20.2573782923 4.0528883499 4.0002569138 
Al 1.9744146779 4.0531317715 6.0269860507 
Al 20.2583620328 2.0245341098 6.0346808165 
Al 1.9638930474 2.0247748855 8.0770185644 
Al 20.2588647511 4.0531428842 8.0750293873 
Al 1.9751433549 4.0531259505 10.1268812122 
Al 20.2584075420 2.0245409891 10.1158489257 
Al 1.9855321619 2.0244716669 12.1543384970 
Al 20.2574290934 4.0528925834 12.1508898491 
Al 1.9873535898 4.0528730038 14.1742745860 
Al 20.2566930079 2.0243266724 14.1718398417 
Al 1.9904969025 2.0242986260 16.1912991421 
Al 20.2562469115 4.0527412387 16.1926178517 
Al 1.9891379754 4.0527301260 18.2172958977 
Al 20.2561230840 2.0242451791 18.2176853721 
Al 6.0212270151 2.0246092530 20.2307754956 
Al 4.0022788999 4.0529137505 20.2373986776 
Al 6.0166930247 4.0532566573 1.9605782813 
Al 4.0081633505 2.0245489268 1.9777648988 
Al 6.0707669980 2.0251569514 4.0319445743 
Al 3.9988159642 4.0532100897 3.9869920286 
Al 5.9954306844 4.0537519672 5.9770486557 
Al 3.9951064320 2.0249473972 6.0198400416 
Al 5.8447850453 2.0254792203 8.0767799055 
Al 3.9192330035 4.0536112060 8.0775440374 
Al 5.9983813765 4.0537519672 10.1763931488 
Al 3.9970442789 2.0249378720 10.1352178700 
Al 6.0752020322 2.0251664766 12.1203637325 
Al 4.0016004947 4.0532037396 12.1663957997 
Al 6.0197458481 4.0532593032 14.1907462851 
Al 4.0103684319 2.0245351682 14.1728791457 
Al 6.0231193528 2.0246044904 16.2037443317 
Al 4.0032462358 4.0529105754 16.1970306604 
Al 6.0229595413 4.0530412822 18.2173514613 
Al 4.0036939197 2.0243399018 18.2171747161 
Al 10.1070772843 2.0249198800 20.2019829636 
Al 8.0521541148 4.0532947580 20.2158802155 
Al 10.1088103397 4.0536556569 1.8726322040 
Al 8.0522096784 2.0250198945 1.9500095541 
Al 8.0151863240 4.0537477337 3.9523854266 
Al 8.0205315430 4.0537498504 12.2011796761 
Al 10.1131358342 4.0536651821 14.2794771322 
Al 8.0572410953 2.0250257155 14.2015938887 
Al 10.1093051204 2.0249257010 16.2351769288 
Al 8.0537358255 4.0532936997 16.2200869115 
Al 10.1066661136 4.0533413256 18.2186886921 
Al 8.0602341216 2.0247457807 18.2178811677 
Al 14.1944335919 2.0245933777 20.2291159959 
Al 12.1626116535 4.0532984623 20.2146710456 
Al 14.2046996297 4.0532566573 1.9550044578 
Al 12.1667667529 2.0250230696 1.9468514245 
Al 14.1568085630 2.0251760018 4.0263760425 
Al 12.2138455327 4.0537482629 3.9479731470 
Al 14.2380854200 4.0537599048 5.9710292649 
Al 14.3936598156 2.0255257879 8.0751521564 
Al 14.2401878410 4.0537704884 10.1785469000 
Al 14.1615753913 2.0251807644 12.1261857402 
Al 12.2182091279 4.0537657258 12.2039705567 
Al 14.2070809272 4.0532725326 14.1964619281 
Al 12.1717166766 2.0250310072 14.2060294521 
Al 14.1964026603 2.0245997278 16.2094001777 
Al 12.1641960101 4.0533037541 16.2233207134 
Al 14.1930751940 4.0530317570 18.2192236903 
Al 12.1538442455 2.0247436640 18.2193194714 
Al 18.2355689160 2.0243012719 20.2418188948 
Al 16.2191714349 4.0529063420 20.2349110155 
Al 18.2404918516 4.0528867624 1.9729049353 
Al 16.2151242876 2.0245468101 1.9724048628 
Al 18.2439658999 2.0244843672 3.9937760805 
Al 16.2295978135 4.0532106189 3.9786701878 
Al 18.2572889946 4.0531418258 6.0209984105 
Al 16.2366274036 2.0249717394 6.0131163160 
Al 18.2700125314 2.0248151029 8.0726814280 
Al 16.3168718358 4.0536440150 8.0727152953 
Al 18.2578441015 4.0531550553 10.1253233145 
Al 16.2389626626 2.0249749144 10.1350702296 
Al 18.2454788176 2.0245023592 12.1562001424 
Al 16.2317420396 4.0532233191 12.1709758285 
Al 18.2411818986 4.0529005210 14.1777391092 
Al 16.2175796699 2.0245595103 14.1793319326 
Al 18.2361398982 2.0243028594 16.1941842162 
Al 16.2199403294 4.0529121629 16.2018080723 
Al 18.2359594487 4.0527295968 18.2183785943 
Al 16.2164795105 2.0243383143 18.2188881919 
Mg 8.3449864953 2.0258147187 6.2995604692 
Mg 11.8928191195 2.0258189521 6.2972373813 
Al 10.1122563417 2.0254670493 3.7993293853 
Si 10.1161934201 4.0542970197 5.4858224471 
Si 7.5291333519 4.0542599773 8.0762660744 
Al 10.1229859388 4.0549754249 8.0756987964 
Mg 8.3485531497 2.0258189521 9.8520149272 
Mg 11.8976647952 2.0258247730 9.8557069966 
Si 12.7100819910 4.0542938446 8.0756421745 
Si 10.1203416403 4.0543001947 10.6656968565 
Al 10.1181508466 2.0254797495 12.3528365729 

