Al 
 1.0000000000000000
     4.0417386153383115    0.0000000000000000    0.0000000000000000
     0.0000000000000000    4.0417386153383115    0.0000000000000000
     0.0000000000000000    0.0000000000000000    4.0417386153383115
   4
Cartesian
  0.0000000000000000  0.0000000000000000  0.0000000000000000
  0.0000000000000000  2.0208693076691553  2.0208693076691553
  2.0208693076691553  0.0000000000000000  2.0208693076691553
  2.0208693076691553  2.0208693076691553  0.0000000000000000
