Al 
 1.0000000000000000
     4.0454999044887652    0.0000000000000000    0.0000000000000000
     0.0000000000000000    4.0454999044887652    0.0000000000000000
     0.0000000000000000    0.0000000000000000    4.0454999044887652
   4
Cartesian
  0.0000000000000000  0.0000000000000000  0.0000000000000000
  0.0000000000000000  2.0227499522443821  2.0227499522443821
  2.0227499522443821  0.0000000000000000  2.0227499522443821
  2.0227499522443821  2.0227499522443821  0.0000000000000000
