&CONTROL
  calculation = 'scf'
  outdir = './out/'
  prefix = 'aiida'
  pseudo_dir = '/users/aglensk/Dropbox/Albert/scripts/dotfiles/scripts/potentials/quantum_espresso/pseudo_SSSPefV1.1_alalloy'
  tprnfor = .true.             	! calculate the pressure of the cell
  tstress = .true.
  verbosity = 'high'
  wf_collect = .true.
  etot_conv_thr = 2.5d-4    ! EDIFFG positive atomic units
  forc_conv_thr = 2.0d-5
/
&SYSTEM
  degauss =   4.4100000000d-02  ! SIGMA in Rydberg  so, 0.60001101eV
  ecutrho = 400                 ! AUGMENTATION charges
  ecutwfc =  40                 ! ENCUT in Rydberg, so 544eV
  ibrav = 0                     ! no symmetry
   nat              = 22
   ntyp             = 2
  occupations = 'smearing'      ! using smearing 
  smearing = 'mp'               ! methfessel paxton
  nosym= .true. 		! no symmetry
/
&ELECTRONS
  conv_thr =   1.0000000000d-12   	! EDIFF
  mixing_beta =   4.0000000000d-01      ! MIXING
  mixing_mode = 'local-TF'                 ! MIXING
/
&IONS
  !press_conv_thr = 0.05                 ! just for volume relaxations
/
ATOMIC_SPECIES
Mg 24.305 Mg.pbe-n-kjpaw_psl.0.3.0.UPF
Si 28.085 Si.pbe-n-rrkjus_psl.1.0.0.UPF

K_POINTS automatic
6 20 13 0 0 0
CELL_PARAMETERS angstrom
14.23147176318435 0.00000000000000 -5.15134434927108
0.00000000000000 4.08879090697758 0.00000000000000
0.00000000000000 0.00000000000000 6.92763772538841

ATOMIC_POSITIONS angstrom
Mg 0.0201113799 4.0868652311 6.8410844425 
Mg 1.1301664145 2.0424049534 2.0966842474 
Mg 2.2464286978 2.0423922532 5.5733139612 
Mg 4.9095124808 4.0867186490 -1.3945063065 
Mg 6.0257303131 4.0867043612 2.0822033131 
Si 0.8417563679 4.0867334660 4.2531507027 
Si 2.7612450972 4.0867514580 0.7085492346 
Si 2.9981254546 4.0868086091 3.2136593324 
Si 4.1577215304 2.0422895928 0.9651911857 
Si 4.3946140589 2.0423478023 3.4702922875 
Si 6.3140758001 2.0423721444 -0.0743102390 
Mg 7.1358393238 2.0422525504 4.2654122678 
Mg 8.2458959460 4.0867043612 -0.4789884564 
Mg 9.3621608751 4.0867186490 2.9976417866 
Mg 12.0252520666 2.0423927823 -3.9701784811 
Mg 13.1414725449 2.0424049534 -0.4934688616 
Si 7.9574933078 2.0423721444 1.6774785281 
Si 9.8769815080 2.0423472731 -1.8671229401 
Si 10.1138613361 2.0422906511 0.6379871578 
Si 11.2734574120 4.0868080800 -1.6104815181 
Si 11.5103494113 4.0867519872 0.8946201129 
Si 13.4298106234 4.0867334660 -2.6499824136 

