&CONTROL
  calculation = 'scf'
  outdir = './out/'
  prefix = 'aiida'
  pseudo_dir = '/users/aglensk/Dropbox/Albert/scripts/dotfiles/scripts/potentials/quantum_espresso/pseudo_SSSPefV1.1_alalloy'
  tprnfor = .true.             	! calculate the pressure of the cell
  tstress = .true.
  verbosity = 'high'
  wf_collect = .true.
  etot_conv_thr = 2.5d-4    ! EDIFFG positive atomic units
  forc_conv_thr = 2.0d-5
/
&SYSTEM
  degauss =   4.4100000000d-02  ! SIGMA in Rydberg  so, 0.60001101eV
  ecutrho = 400                 ! AUGMENTATION charges
  ecutwfc =  40                 ! ENCUT in Rydberg, so 544eV
  ibrav = 0                     ! no symmetry
   nat              = 484
   ntyp             = 3
  occupations = 'smearing'      ! using smearing 
  smearing = 'mp'               ! methfessel paxton
  nosym= .true. 		! no symmetry
/
&ELECTRONS
  conv_thr =   1.0000000000d-12   	! EDIFF
  mixing_beta =   4.0000000000d-01      ! MIXING
  mixing_mode = 'local-TF'                 ! MIXING
/
&IONS
  !press_conv_thr = 0.05                 ! just for volume relaxations
/
ATOMIC_SPECIES
Al 26.9815385 Al.pbe-n-kjpaw_psl.1.0.0.UPF
Si 28.085 Si.pbe-n-rrkjus_psl.1.0.0.UPF
Mg 24.305 Mg.pbe-n-kjpaw_psl.0.3.0.UPF

K_POINTS automatic
2 20 2 0 0 0
CELL_PARAMETERS angstrom
44.62699692139272 0.00000000000000 0.00000000000000
0.00000000000000 4.05699952769853 0.00000000000000
0.00000000000000 0.00000000000000 44.62699692139272

ATOMIC_POSITIONS angstrom
Al 1.8317971862 2.0248680207 44.3815248428 
Al 44.4536321171 4.0532566573 44.4093807312 
Al 1.8307891036 4.0535434713 1.7312471661 
Al 44.4254629558 2.0248182780 1.7537694773 
Al 1.7959581304 2.0252209819 3.6543459423 
Al 44.4081276396 4.0534842035 3.7607618918 
Al 1.7869298380 4.0539900969 5.5997140831 
Al 44.3096265936 2.0251167339 5.7482520094 
Si 1.6908926412 2.0256464403 7.2564493937 
Mg 44.5871334729 4.0540446022 8.1208481960 
Mg 1.6976475883 2.0258337691 9.9833493023 
Si 43.7447801932 2.0256062229 9.9448654189 
Si 1.8247326704 2.0260782489 12.7043652896 
Mg 44.6153915360 4.0543234785 11.7674877306 
Al 1.6196145876 4.0544631813 14.2677817867 
Al 44.2884499800 2.0258443526 14.1467272080 
Al 1.5026320276 2.0259470130 16.3024940910 
Al 44.2463385867 4.0543732212 16.1979725959 
Al 1.6853923732 4.0544615938 18.3647304895 
Al 44.3517268741 2.0258147187 18.3028321020 
Al 1.7773861271 2.0259496589 20.2930956373 
Al 44.3990046245 4.0542911987 20.3525635139 
Al 1.7281641796 4.0543414706 22.4034384778 
Al 44.4293391789 2.0256512029 22.3851702221 
Al 1.7640937247 2.0255580677 24.4607672869 
Al 44.4465755390 4.0540170849 24.4359319420 
Al 1.7966656404 4.0538996076 26.4895633899 
Al 44.4589466438 2.0252326238 26.4739293784 
Al 1.8208749686 2.0251611848 28.5007569423 
Al 44.4711679915 4.0536217896 28.4915455546 
Al 1.8431051740 4.0535360629 30.5037360768 
Al 44.4827622642 2.0248928920 30.4984040872 
Al 1.8495103350 2.0247891732 32.5030289629 
Al 44.4843603793 4.0532349610 32.4962454402 
Al 1.8536987726 4.0531836308 34.4940301712 
Al 44.4834099771 2.0245817358 34.4877615380 
Al 1.8598075943 2.0245558061 36.4778853705 
Al 44.4835025831 4.0530100607 36.4750981942 
Al 1.8616941111 4.0530814996 38.4574177212 
Al 44.4818049826 2.0244425622 38.4584131035 
Al 1.8580687180 2.0246499996 40.4315900359 
Al 44.4765550155 4.0530386363 40.4403738484 
Al 1.8491287982 4.0533169835 42.4099063374 
Al 44.4658592857 2.0246039612 42.4213852494 
Al 5.8725001725 2.0251998148 44.3441755153 
Al 3.8518523401 4.0535567008 44.3791684167 
Al 5.8683667693 4.0539202455 1.7024080664 
Al 3.8331713262 2.0251929355 1.7119528358 
Al 5.7801434031 2.0255496009 3.6685310666 
Al 3.8733750356 4.0539763383 3.7827052832 
Mg 6.0305812806 4.0545446746 6.0447690508 
Al 3.7754666681 2.0256025186 5.6932223421 
Si 5.2744526647 2.0261279916 7.7491879907 
Mg 3.3489418988 4.0544594771 8.1992378621 
Mg 6.2727893942 4.0549002817 9.5139061445 
Si 4.2896099541 2.0261618589 9.9172915820 
Al 5.8280265322 2.0264518480 11.8619331624 
Mg 3.4761688004 4.0546293430 11.6613162610 
Si 5.6234963653 4.0549008109 13.4088594392 
Mg 3.9970913757 2.0262459981 14.4353171748 
Mg 5.7348347212 4.0550373386 16.2035157271 
Si 3.1416145011 4.0545462622 16.2552385661 
Si 5.8689859067 4.0549950044 18.9341341641 
Mg 4.0255383550 2.0262052515 18.0220781913 
Al 5.6556682230 2.0264275059 20.4952434485 
Al 3.6847985032 4.0546050008 20.3771983006 
Al 5.5406377976 4.0548013256 22.5142815238 
Al 3.6355125254 2.0259999307 22.4121429137 
Al 5.7214401876 2.0259120873 24.5563012362 
Al 3.7356212117 4.0542568022 24.4923353534 
Al 5.8151405380 4.0543028406 26.4606914813 
Al 3.7769621229 2.0255305505 26.5076046286 
Al 5.7674928927 2.0254712827 28.5318672705 
Al 3.8044618750 4.0538794989 28.5041039882 
Al 5.8015306293 4.0537588465 30.5520197930 
Al 3.8247664046 2.0250849833 30.5191774678 
Al 5.8389932007 2.0249876147 32.5446349919 
Al 3.8396553346 4.0534503361 32.5206114049 
Al 5.8688292702 4.0534445152 34.5157973466 
Al 3.8566355729 2.0247314929 34.5051492428 
Al 5.8909076018 2.0248240989 36.4821484222 
Al 3.8695236839 4.0532286109 36.4830453775 
Al 5.8941736835 4.0534275815 38.4533938577 
Al 3.8751102077 2.0247420765 38.4549739809 
Al 5.8936524440 2.0249426346 40.4208821351 
Al 3.8719171524 4.0533572010 40.4311598148 
Al 5.8906541259 4.0536191437 42.3921603796 
Al 3.8619612124 2.0248913045 42.3999493390 
Al 9.9495983799 2.0255575386 44.3179008085 
Al 7.9222823854 4.0539355916 44.3237794381 
Al 10.0009788411 4.0543441165 1.7390239544 
Al 7.9002204583 2.0256284483 1.6032910582 
Al 9.9100122203 2.0260031058 3.6351727936 
Al 7.8967294763 4.0544536561 3.5329611570 
Mg 9.5088281600 4.0550167007 6.0999352459 
Si 7.8028275094 2.0261459836 5.1746815934 
Si 10.4787433106 2.0268603729 7.8285296466 
Mg 7.8811377990 2.0264962989 7.8688545375 
Mg 9.6877472083 4.0554347507 9.5543654465 
Si 8.0594874526 2.0268534935 10.6133379466 
Mg 10.1974057174 2.0272493181 12.3688547671 
Al 7.8482563146 4.0553305028 12.1510671235 
Si 9.3944396266 4.0557136271 14.0831719666 
Mg 7.3761423994 2.0267979299 14.5066566129 
Mg 10.3767200611 2.0272995899 15.7729771486 
Si 8.3483023197 4.0553416155 16.1957966192 
Al 9.9235173519 4.0557337358 18.1044065234 
Mg 7.5372593971 2.0267709419 17.9206439161 
Si 9.7132170366 2.0271752333 19.6441751492 
Mg 8.0585963182 4.0553405571 20.6559836721 
Mg 9.8117482457 2.0269312826 22.4132864656 
Si 7.1967322746 2.0265127034 22.4642044260 
Si 9.9534661361 2.0265243453 25.1194431569 
Mg 8.0842587670 4.0548981650 24.2128207757 
Al 9.7380529106 4.0547595206 26.6641749358 
Al 7.7469945511 2.0259496589 26.5379280703 
Al 9.6458988161 2.0259194958 28.6550591960 
Al 7.7082905300 4.0542081179 28.5501080090 
Al 9.8331677516 4.0540308435 30.6750931828 
Al 7.8116859360 2.0253643889 30.5976719110 
Al 9.9600549215 2.0253749724 32.5445794283 
Al 7.8557171841 4.0536805282 32.5692115691 
Al 9.9228320674 4.0537413836 34.5505865148 
Al 7.9035997840 2.0250315364 34.5189972812 
Al 9.9462619175 2.0252024607 36.5022883776 
Al 7.9114543613 4.0535424130 36.4896595635 
Al 9.9548234756 4.0537477337 38.4622723929 
Al 7.9217219868 2.0250320656 38.4512353439 
Al 9.9610270201 2.0252442656 40.4124549880 
Al 7.9236328457 4.0536826449 40.4140610408 
Al 9.9594236131 4.0539175996 42.3742921819 
Al 7.9182833932 2.0252109275 42.3672186701 
Al 14.0648137508 2.0257559800 44.2310929913 
Al 12.0103282109 4.0542007094 44.3196920733 
Al 14.0760413037 4.0545541998 1.5042968191 
Al 11.9363730498 2.0258692239 1.6408504691 
Si 13.9928355958 2.0262332979 3.1299821276 
Mg 12.2008611114 4.0548621809 3.9787707315 
Mg 14.0806864213 2.0267778212 5.8028482805 
Si 11.4530543363 2.0265269912 5.6670873380 
Si 14.2587651362 2.0273027650 8.5344568081 
Mg 12.4596986188 4.0554278714 7.4287447308 
Al 14.0581328886 4.0558570341 10.0709942778 
Al 12.0260754663 2.0272477306 9.7746904948 
Mg 13.6170033574 2.0276144504 12.4082625939 
Si 11.8294300398 4.0557882411 11.3210918278 
Si 14.6092519030 4.0562851385 14.0997928936 
Mg 12.0011189399 4.0560300750 14.0938465293 
Mg 13.8106652827 2.0278060125 15.8159516299 
Si 12.1641658470 4.0561464940 16.8545280528 
Mg 14.3142006824 4.0563555190 18.6041583060 
Al 11.9489071412 2.0275996334 18.3950962654 
Si 13.5089310832 2.0277393362 20.3181299528 
Mg 11.4778621640 4.0558146999 20.7401313154 
Mg 14.4928196872 4.0559999119 22.0031508437 
Si 12.4476905295 2.0271392492 22.4231471538 
Al 14.0505349622 2.0269677958 24.3112429742 
Mg 11.6393225977 4.0553580200 24.1334521317 
Si 13.8481537839 4.0553188609 25.8385965736 
Mg 12.1732973289 2.0264656067 26.8187788204 
Mg 13.9698020994 4.0548621809 28.5474017967 
Si 11.3214447890 4.0545176866 28.6073708041 
Si 14.0468026753 4.0542065304 31.1787111341 
Mg 12.2183985734 2.0258009601 30.3489210505 
Al 14.0547387459 2.0255739431 32.7862186763 
Al 11.9187361026 4.0539779258 32.6251307833 
Al 14.0582276113 4.0540160266 34.6628789772 
Al 11.9859119744 2.0253696806 34.5658516898 
Al 14.0640009346 2.0254400612 36.5558569866 
Al 11.9907343663 4.0538451023 36.5293833091 
Al 14.0666171868 4.0539615213 38.4789848676 
Al 12.0070028613 2.0252807789 38.4672154373 
Al 14.0662224206 2.0253934936 40.4085972861 
Al 12.0137964383 4.0539138954 40.4179743063 
Al 14.0757052762 4.0540964615 42.3428251883 
Al 12.0041241373 2.0255009166 42.3529589318 
Al 18.1615682457 2.0257591551 44.2939857028 
Al 16.1915330384 4.0542959613 44.3697649377 
Mg 18.4554658599 4.0545965340 1.9662722281 
Al 16.1261404938 2.0259475422 1.6278078384 
Si 17.7086825135 2.0263005034 3.6334677846 
Mg 15.7302254510 4.0549992378 4.0482628120 
Mg 18.7010670577 4.0551373531 5.3771606695 
Si 16.6960378907 2.0268704272 5.7743579087 
Al 18.2644371203 2.0270947984 7.7039528644 
Mg 15.9065065509 4.0555998540 7.4897345210 
Si 18.0695348036 4.0556961642 9.2443215772 
Mg 16.4273026528 2.0274562264 10.2719932453 
Mg 18.2514341779 4.0561285020 12.0000743441 
Si 15.6363965106 4.0561062766 11.9852441528 
Si 18.4102635426 4.0564396582 14.7624772810 
Mg 16.6271162633 2.0277911956 13.6754044127 
Al 18.2008993418 2.0279742909 16.3048484004 
Al 16.1767144890 4.0564830507 16.0200843848 
Mg 17.7519559799 4.0564385999 18.6509830806 
Si 15.9672746159 2.0279843452 17.5619549025 
Si 18.7408982264 2.0278007208 20.3411914957 
Mg 16.1258679675 2.0277821996 20.3284219204 
Mg 17.9437451472 4.0561359105 22.0552726822 
Si 16.2972689952 2.0273588578 23.0830073224 
Mg 18.4561193938 2.0271424243 24.8382214535 
Al 16.0937257437 4.0557257982 24.6225981447 
Si 17.6601363254 4.0553913582 26.5533371815 
Mg 15.6493804026 2.0266370601 26.9517520574 
Mg 18.6193086495 2.0264576690 28.2755327714 
Si 16.6398831926 4.0546912567 28.6907315609 
Al 18.2161026031 4.0544478352 30.6960893470 
Mg 15.8840117568 2.0259962265 30.3570015865 
Al 18.1422548650 2.0257692094 32.5787806806 
Al 16.1744633691 4.0541737214 32.6549562692 
Al 18.2003865691 4.0541361498 34.5963079550 
Al 16.1288938028 2.0256152189 34.5898027795 
Al 18.1997404437 2.0255279046 36.5298421058 
Al 16.1365340634 4.0540477772 36.5459042217 
Al 18.1984905272 4.0540546565 38.4723854986 
Al 16.1287964342 2.0254517031 38.4726051072 
Al 18.1911593061 2.0255612428 40.4004897621 
Al 16.1285794715 4.0540498939 40.4164772640 
Al 18.2017280334 4.0541213329 42.3580273912 
Al 16.1311465102 2.0256205106 42.3503125166 
Al 22.4174876035 2.0255173211 44.3189131245 
Al 20.2777669611 4.0542515104 44.1598816141 
Mg 22.1248959986 4.0543716337 1.9699584766 
Si 20.2901592330 2.0258385317 1.1437355765 
Si 23.0239410913 2.0260475567 3.7114415174 
Mg 20.3780545093 2.0263243163 3.7766901258 
Mg 22.1816640131 4.0548918149 5.5036107390 
Si 20.5085877102 2.0267783504 6.4850021558 
Mg 22.7251570547 2.0266460561 8.1842669097 
Al 20.3118300981 4.0553627826 8.0133828881 
Si 21.9223200831 4.0553760120 9.8968499955 
Mg 19.8815666918 2.0273297530 10.3210680814 
Mg 22.8981138634 2.0271434827 11.5773649424 
Si 20.8667808847 4.0560861678 12.0044850361 
Al 22.4282769977 4.0561073349 13.9240854218 
Mg 20.0628590999 2.0277832579 13.7181106011 
Si 22.2136681216 2.0276922394 15.4654225289 
Mg 20.5677185009 4.0564031450 16.5054848814 
Mg 22.3785761449 2.0277054689 18.2307126567 
Si 19.7689964113 2.0279361901 18.2264003916 
Si 22.5462739904 2.0274461720 21.0054623563 
Mg 20.7631711620 4.0562988971 19.9187038192 
Al 22.3450517102 4.0558681468 22.5520991732 
Al 20.3146019284 2.0274488179 22.2572564484 
Mg 21.9074750748 2.0269508622 24.9016983766 
Si 20.1092531243 4.0558538590 23.7920338748 
Si 22.9085270125 4.0550473930 26.6580571180 
Mg 20.2784993423 4.0553479656 26.5232566321 
Mg 22.1542462834 2.0263973428 28.3477469394 
Si 20.3544786062 4.0547362368 29.1971589140 
Al 22.4127392964 4.0544795858 30.6814882894 
Al 20.2646089697 2.0260269187 30.8198326751 
Al 22.3308348353 2.0258057227 32.6279766983 
Al 20.2725831411 4.0543345913 32.7179833917 
Al 22.3312592354 4.0541779548 34.5924714202 
Al 20.2574111013 2.0256723700 34.6041440111 
Al 22.3189511027 2.0255030333 36.5260696015 
Al 20.2641480564 4.0541107493 36.5364012573 
Al 22.3243286015 4.0539869218 38.4754827728 
Al 20.2624573352 2.0254321236 38.4647653468 
Al 22.3400954365 2.0254072522 40.4143055207 
Al 20.2657324130 4.0540197308 40.3890394256 
Al 22.3465810324 4.0539572879 42.3781609965 
Al 20.2719581828 2.0255485425 42.2819280040 
Al 26.4812045067 2.0251447803 44.3678344992 
Al 24.3761163960 4.0539048994 44.3960936206 
Al 26.5296882519 4.0537974764 1.7126889213 
Al 24.5059034570 2.0254696951 1.6403075333 
Al 26.6395020483 2.0255744722 3.7608026385 
Al 24.7010428452 4.0543827464 3.6595615129 
Al 26.6093273054 4.0543118366 5.7721496522 
Al 24.6156833861 2.0261242874 5.6492487742 
Mg 26.2820370216 2.0262290644 8.0980845800 
Si 24.4095265284 4.0547420577 7.1971863087 
Si 27.1707578670 4.0548320178 9.8454277292 
Mg 24.5580104786 4.0552802309 9.9032895530 
Mg 26.3158286908 2.0267693544 11.6555207122 
Si 24.6635998533 4.0556162585 12.6696528522 
Mg 26.8426637630 4.0554204629 14.3886109359 
Al 24.4527296142 2.0272456139 14.2098702203 
Si 26.0302174624 2.0271037944 16.1169566233 
Mg 24.0034772128 4.0559782157 16.5427685910 
Mg 27.0061176073 4.0555490530 17.8021188044 
Si 24.9851035843 2.0274689266 18.2311158897 
Al 26.5281806261 2.0269249325 20.1639324763 
Mg 24.1797297372 4.0559300606 19.9492262316 
Si 26.3144089083 4.0553855372 21.7030936067 
Mg 24.6871387140 2.0269402786 22.7703260339 
Mg 26.4884500011 4.0550352219 24.4513844457 
Si 23.8907603503 4.0553453197 24.4991897858 
Si 26.5613335783 4.0546907275 27.1468496406 
Mg 24.8565817860 2.0264957698 26.2235031428 
Al 26.4606544389 2.0260306230 28.7882319328 
Al 24.4510468307 4.0546812023 28.6867505607 
Al 26.4516446677 4.0543171284 30.7170823361 
Al 24.3504322509 2.0259613008 30.5826580952 
Al 26.4245259232 2.0256099271 32.6207190329 
Al 24.3950572359 4.0542229349 32.6271718198 
Al 26.4235924546 4.0539705173 34.5754202721 
Al 24.3791745111 2.0255384882 34.5694897831 
Al 26.4132703240 2.0252664911 36.5264019247 
Al 24.3742013037 4.0539773966 36.5295970967 
Al 26.4131909474 4.0537265667 38.4881216413 
Al 24.3786215209 2.0253225839 38.4790145015 
Al 26.4223885765 2.0251093255 40.4486697596 
Al 24.3860691610 4.0538144101 40.4389561827 
Al 26.4310289820 4.0536286689 42.4186277070 
Al 24.4103366987 2.0253051210 42.3900410249 
Al 30.4996757001 2.0247949942 44.4105518004 
Al 28.4976268591 4.0535048414 44.3887211237 
Al 30.5179386640 4.0535508798 1.7837320202 
Al 28.5394562009 2.0251130297 1.7547436926 
Al 30.5450537042 2.0252141025 3.7977164531 
Al 28.5808124582 4.0538959034 3.7738156352 
Al 30.5781606181 4.0539451168 5.7931479331 
Al 28.5396297710 2.0256723700 5.8449120478 
Al 30.6275127431 2.0256379735 7.8082780347 
Al 28.6409751445 4.0543382955 7.7499764647 
Al 30.7340451116 4.0544758816 9.8883895103 
Al 28.8277471826 2.0261750884 9.7909843903 
Al 30.6907938706 2.0261459836 11.9221752253 
Al 28.7195283263 4.0549367949 11.8083984208 
Mg 30.3535370633 4.0548833480 14.2785288466 
Si 28.5094047563 2.0266873319 13.3718953527 
Si 31.2351235414 2.0262899198 16.0433062683 
Mg 28.6444433719 2.0267555958 16.1035710857 
Mg 30.3788116252 4.0549341490 17.8642505591 
Si 28.7540502600 2.0266296516 18.9004964855 
Mg 30.8987785064 2.0260660779 20.6456329658 
Al 28.5463402672 4.0550966064 20.4481493226 
Si 30.0796238263 4.0545287993 22.3949250748 
Mg 28.0966825161 2.0263767049 22.8041499828 
Mg 31.0192520485 2.0258316524 24.1090078489 
Si 29.0937756791 4.0545536706 24.5636530952 
Al 30.5904687508 4.0542451603 26.6190059566 
Mg 28.3377661280 2.0260708405 26.2732643218 
Al 30.4862113151 2.0256168064 28.5303903369 
Al 28.5803907040 4.0542419853 28.6502558544 
Al 30.5218307624 4.0539112495 30.6019577172 
Al 28.4849535941 2.0255935226 30.6158793113 
Al 30.4973997089 2.0252151609 32.5595170426 
Al 28.4757654902 4.0539493503 32.5985713791 
Al 30.4828981366 4.0536477192 34.5365908359 
Al 28.4527372855 2.0252474407 34.5485131985 
Al 30.4690892573 2.0249796770 36.5051591640 
Al 28.4455611134 4.0536852908 36.5180700296 
Al 30.4629148176 4.0534159396 38.4788509858 
Al 28.4413705590 2.0250124860 38.4836463897 
Al 30.4671360642 2.0248145738 40.4495323184 
Al 28.4442847379 4.0535133082 40.4531693534 
Al 30.4803670820 4.0533233336 42.4260266627 
Al 28.4665736820 2.0249050631 42.4175270184 
Al 34.4830000015 2.0246261867 44.4302742350 
Al 32.4902207577 4.0532476613 44.4259857829 
Al 34.4888331219 4.0533148668 1.8006466405 
Al 32.5009397713 2.0248685498 1.7970201891 
Al 34.5056149187 2.0249309927 3.8067712044 
Al 32.5279262215 4.0536170270 3.7986324589 
Al 34.5243319167 4.0537038120 5.8242714907 
Al 32.5576495762 2.0252342113 5.8081765659 
Al 34.5425155040 2.0253495719 7.8624155092 
Al 32.5977373958 4.0540160266 7.8386289936 
Al 34.5652076811 4.0541530835 9.9130576351 
Al 32.6401615328 2.0257517466 9.8948687560 
Al 34.5992861643 2.0257692094 11.9433782977 
Al 32.5959069718 4.0544610646 12.0038891826 
Al 34.6510656252 4.0543864506 13.9917110943 
Al 32.6897078658 2.0260142185 13.9325776577 
Al 34.7561406396 2.0259057372 16.0967288244 
Al 32.8742086753 4.0546129385 15.9941017837 
Al 34.7126152849 4.0543515249 18.1489373148 
Al 32.7552681596 2.0260274479 18.0310350448 
Mg 34.3832887272 2.0257131167 20.5296489632 
Si 32.5475888591 4.0544563020 19.5967703963 
Si 35.2504101463 4.0539297707 22.3512727175 
Mg 32.6719280407 4.0542747942 22.3211112040 
Mg 34.4058628978 2.0254405904 24.1801499039 
Si 32.6723450324 4.0540599483 25.0503569553 
Al 34.6779721696 4.0537599048 26.5548268153 
Al 32.5737153963 2.0255141460 26.7066795077 
Al 34.5749720590 2.0251527180 28.5451856025 
Al 32.5613771005 4.0538667986 28.6549697650 
Al 34.5529006067 4.0535641092 30.5534258169 
Al 32.5224227785 2.0252347405 30.5780939417 
Al 34.5203736711 2.0248764875 32.5237197918 
Al 32.5166711514 4.0535974474 32.5548205948 
Al 34.5043364266 4.0533048124 34.5110797318 
Al 32.4942763718 2.0249040047 34.5240117645 
Al 34.4909482432 2.0246219533 36.4909761564 
Al 32.4825095874 4.0533455591 36.5021836005 
Al 34.4839832127 4.0531106044 38.4711276444 
Al 32.4770781125 2.0247314929 38.4744704568 
Al 34.4810372832 2.0245240555 40.4533693824 
Al 32.4772088193 4.0531857475 40.4523840544 
Al 34.4816230824 4.0530555699 42.4394757015 
Al 32.4841251654 2.0246293617 42.4351724325 
Al 38.4631778151 2.0245034176 44.4321729228 
Al 36.4749156280 4.0530793829 44.4337107118 
Al 38.4611489497 4.0531883934 1.8075571657 
Al 36.4756411300 2.0246754001 1.8043529977 
Al 38.4547718352 2.0248082236 3.8061166122 
Al 36.4809164976 4.0533963601 3.8116766771 
Al 38.4472612230 4.0535175417 5.8236587035 
Al 36.4812488209 2.0250204237 5.8297257202 
Al 38.4334629272 2.0251998148 7.8557235342 
Al 36.4891187444 4.0538286979 7.8684153205 
Al 38.4279997017 4.0539594046 9.9197792440 
Al 36.5068742273 2.0254728702 9.9108361492 
Al 38.4703719793 2.0255914059 11.9986603826 
Al 36.5429445335 4.0541975344 11.9622794494 
Al 38.5119213864 4.0542795568 14.0656773681 
Al 36.5902175213 2.0257348129 14.0287884247 
Al 38.5354295548 2.0257353421 16.1452374409 
Al 36.6359431949 4.0543430581 16.1104170513 
Al 38.5683581359 4.0542409269 18.1866364285 
Al 36.5917791232 2.0257819097 18.2527116117 
Al 38.5930722991 2.0256347984 20.2765599079 
Al 36.6683711743 4.0541610211 20.2110911617 
Al 38.6815396160 4.0539197163 22.3628902740 
Al 36.8310936957 2.0254368862 22.3563120721 
Al 38.5939470291 2.0252903041 24.4381237940 
Al 36.6633508701 4.0537816011 24.4944621166 
Al 38.5761576788 4.0536233771 26.4910524946 
Al 36.5562268815 2.0251871145 26.4394815296 
Al 38.5367461477 2.0249823229 28.4889293025 
Al 36.5791497799 4.0535619925 28.5267543603 
Al 38.5357565863 4.0533741346 30.5042610206 
Al 36.5474219019 2.0248743708 30.5174269496 
Al 38.5171528323 2.0246732834 32.5008402859 
Al 36.5285630845 4.0533196294 32.5132701294 
Al 38.5039260479 4.0530762079 34.4934046838 
Al 36.5068668188 2.0246304201 34.4990668799 
Al 38.4931112532 2.0244351537 36.4803428695 
Al 36.4953868484 4.0530640368 36.4854409628 
Al 38.4839093907 4.0529105754 38.4663063108 
Al 36.4872227024 2.0244415038 38.4684558286 
Al 38.4775010547 2.0243589522 40.4535376607 
Al 36.4802693139 4.0529661390 40.4546870336 
Al 38.4706513849 4.0529502637 42.4414521784 
Al 36.4763692778 2.0244589667 42.4430412976 
Al 42.4456903587 2.0245965527 44.4169754825 
Al 40.4545753772 4.0530709161 44.4260805056 
Al 42.4304114251 4.0532333735 1.7852311792 
Al 40.4393356027 2.0246341243 1.7955787104 
Al 42.4028656346 2.0248378576 3.7743855591 
Al 40.4417539426 4.0533323296 3.8095425054 
Al 42.4294933026 4.0536006225 5.8593014345 
Al 40.4076421213 2.0250294197 5.8069684543 
Al 42.3249956205 2.0252601410 7.8041848490 
Al 40.3942412376 4.0537207457 7.8589658030 
Al 42.1633362161 4.0540371937 9.9376664921 
Al 40.3118726880 2.0254453530 9.9305427085 
Al 42.3292602596 2.0256871870 12.0810405740 
Al 40.4040892255 4.0541350915 12.0162846296 
Al 42.4087410891 4.0542097054 14.0402101856 
Al 40.4325155669 2.0257252877 14.1057815921 
Al 42.3658851436 2.0257522758 16.1837123284 
Al 40.4660087800 4.0542991364 16.1458999708 
Al 42.4107969426 4.0542605065 18.2642788963 
Al 40.4884511855 2.0256707825 18.2261305112 
Al 42.4552012607 2.0256300358 20.3310720399 
Al 40.5282431951 4.0541589044 20.2939756590 
Al 42.4875144087 4.0540721194 22.3846182903 
Al 40.5660327980 2.0254358278 22.3755434303 
Al 42.5009983732 2.0253516886 24.4288346173 
Al 40.5559874270 4.0538006515 24.4400626993 
Al 42.5025155243 4.0537292125 26.4671236303 
Al 40.5359093853 2.0251177923 26.4721280592 
Al 42.4972846075 2.0249854980 28.4852716296 
Al 40.5232890380 4.0534969037 28.4905713394 
Al 42.4971978225 4.0533677845 30.4930170632 
Al 40.5118577519 2.0247944650 30.4901113512 
Al 42.4942905229 2.0246674625 32.4914336318 
Al 40.5066702277 4.0531878643 32.4931608663 
Al 42.4905074350 4.0530460448 34.4836805234 
Al 40.4975260455 2.0244790754 34.4855495773 
Al 42.4863380478 2.0243991696 36.4730497492 
Al 40.4894740851 4.0529280382 36.4748748814 
Al 42.4797778379 4.0528962876 38.4597148795 
Al 40.4827112003 2.0243420185 38.4616977065 
Al 42.4731573018 2.0244245702 40.4448231704 
Al 40.4745486419 4.0528883499 40.4490957472 
Al 42.4642189695 4.0530428697 42.4313422478 
Al 40.4657955216 2.0244436205 42.4353687572 

