Al 
 1.0000000000000000
     4.0443779318202520    0.0000000000000000    0.0000000000000000
     0.0000000000000000    4.0443779318202520    0.0000000000000000
     0.0000000000000000    0.0000000000000000    4.0443779318202520
   4
Cartesian
  0.0000000000000000  0.0000000000000000  0.0000000000000000
  0.0000000000000000  2.0221889659101255  2.0221889659101255
  2.0221889659101255  0.0000000000000000  2.0221889659101255
  2.0221889659101255  2.0221889659101255  0.0000000000000000
