Al 
 1.0000000000000000
     4.0434904348573637    0.0000000000000000    0.0000000000000000
     0.0000000000000000    4.0434904348573637    0.0000000000000000
     0.0000000000000000    0.0000000000000000    4.0434904348573637
   4
Cartesian
  0.0000000000000000  0.0000000000000000  0.0000000000000000
  0.0000000000000000  2.0217452174286814  2.0217452174286814
  2.0217452174286814  0.0000000000000000  2.0217452174286814
  2.0217452174286814  2.0217452174286814  0.0000000000000000
