Al 
 1.0000000000000000
     4.0432274462655737    0.0000000000000000    0.0000000000000000
     0.0000000000000000    4.0432274462655737    0.0000000000000000
     0.0000000000000000    0.0000000000000000    4.0432274462655737
   4
Cartesian
  0.0000000000000000  0.0000000000000000  0.0000000000000000
  0.0000000000000000  2.0216137231327864  2.0216137231327864
  2.0216137231327864  0.0000000000000000  2.0216137231327864
  2.0216137231327864  2.0216137231327864  0.0000000000000000
