Al 
 1.0000000000000000
     4.0429652581766238    0.0000000000000000    0.0000000000000000
     0.0000000000000000    4.0429652581766238    0.0000000000000000
     0.0000000000000000    0.0000000000000000    4.0429652581766238
   4
Cartesian
  0.0000000000000000  0.0000000000000000  0.0000000000000000
  0.0000000000000000  2.0214826290883114  2.0214826290883114
  2.0214826290883114  0.0000000000000000  2.0214826290883114
  2.0214826290883114  2.0214826290883114  0.0000000000000000
