&CONTROL
  calculation = 'scf'
  outdir = './out/'
  prefix = 'aiida'
  pseudo_dir = '/users/aglensk/Dropbox/Albert/scripts/dotfiles/scripts/potentials/quantum_espresso/pseudo_SSSPefV1.1_alalloy'
  tprnfor = .true.             	! calculate the pressure of the cell
  tstress = .true.
  verbosity = 'high'
  wf_collect = .true.
  etot_conv_thr = 2.5d-4    ! EDIFFG positive atomic units
  forc_conv_thr = 2.0d-5
/
&SYSTEM
  degauss =   4.4100000000d-02  ! SIGMA in Rydberg  so, 0.60001101eV
  ecutrho = 400                 ! AUGMENTATION charges
  ecutwfc =  40                 ! ENCUT in Rydberg, so 544eV
  ibrav = 0                     ! no symmetry
   nat              = 22
   ntyp             = 2
  occupations = 'smearing'      ! using smearing 
  smearing = 'mp'               ! methfessel paxton
  nosym= .true. 		! no symmetry
/
&ELECTRONS
  conv_thr =   1.0000000000d-12   	! EDIFF
  mixing_beta =   4.0000000000d-01      ! MIXING
  mixing_mode = 'local-TF'                 ! MIXING
/
&IONS
  !press_conv_thr = 0.05                 ! just for volume relaxations
/
ATOMIC_SPECIES
Mg 24.305 Mg.pbe-n-kjpaw_psl.0.3.0.UPF
Si 28.085 Si.pbe-n-rrkjus_psl.1.0.0.UPF

K_POINTS automatic
6 20 13 0 0 0
CELL_PARAMETERS angstrom
14.23147176318435 0.00000000000000 -5.15134434927108
0.00000000000000 4.08471042150692 0.00000000000000
0.00000000000000 0.00000000000000 6.92763772538841

ATOMIC_POSITIONS angstrom
Mg 0.0201097924 4.0841775401 6.8410876175 
Mg 1.1300293576 2.0412206548 2.0965466614 
Mg 2.2471737793 2.0411396907 5.5734282635 
Mg 4.9087621075 4.0838870218 -1.3946169045 
Mg 6.0258768952 4.0838060577 2.0823726498 
Si 0.8415870312 4.0837250935 4.2532067955 
Si 2.7605206536 4.0835716321 0.7084709163 
Si 2.9976809457 4.0836875220 3.2138376651 
Si 4.1581644518 2.0413365446 0.9649932734 
Si 4.3953337399 2.0414524344 3.4703542012 
Si 6.3142451368 2.0412989730 -0.0743700360 
Mg 7.1358462031 2.0408507599 4.2654154429 
Mg 8.2457652392 4.0838060577 -0.4791255133 
Mg 9.3629096609 4.0838870218 2.9977560889 
Mg 12.0244979891 2.0411396907 -3.9702890792 
Mg 13.1416122476 2.0412206548 -0.4933000540 
Si 7.9573229128 2.0412989730 1.6775346208 
Si 9.8762565352 2.0414519053 -1.8672012583 
Si 10.1134168273 2.0413365446 0.6381654905 
Si 11.2739003333 4.0836875220 -1.6106789012 
Si 11.5110690923 4.0835716321 0.8946820266 
Si 13.4299810184 4.0837256227 -2.6500422106 

