Al 
 1.0000000000000000
     4.0410471555656970    0.0000000000000000    0.0000000000000000
     0.0000000000000000    4.0410471555656970    0.0000000000000000
     0.0000000000000000    0.0000000000000000    4.0410471555656970
   4
Cartesian
  0.0000000000000000  0.0000000000000000  0.0000000000000000
  0.0000000000000000  2.0205235777828481  2.0205235777828481
  2.0205235777828481  0.0000000000000000  2.0205235777828481
  2.0205235777828481  2.0205235777828481  0.0000000000000000
