Al 
 1.0000000000000000
     4.0418800566771909    0.0000000000000000    0.0000000000000000
     0.0000000000000000    4.0418800566771909    0.0000000000000000
     0.0000000000000000    0.0000000000000000    4.0418800566771909
   4
Cartesian
  0.0000000000000000  0.0000000000000000  0.0000000000000000
  0.0000000000000000  2.0209400283385950  2.0209400283385950
  2.0209400283385950  0.0000000000000000  2.0209400283385950
  2.0209400283385950  2.0209400283385950  0.0000000000000000
