&CONTROL
  calculation = 'scf'
  outdir = './out/'
  prefix = 'aiida'
  pseudo_dir = '/users/aglensk/Dropbox/Albert/scripts/dotfiles/scripts/potentials/quantum_espresso/pseudo_SSSPefV1.1_alalloy'
  tprnfor = .true.             	! calculate the pressure of the cell
  tstress = .true.
  verbosity = 'high'
  wf_collect = .true.
  etot_conv_thr = 2.5d-4    ! EDIFFG positive atomic units
  forc_conv_thr = 2.0d-5
/
&SYSTEM
  degauss =   4.4100000000d-02  ! SIGMA in Rydberg  so, 0.60001101eV
  ecutrho = 400                 ! AUGMENTATION charges
  ecutwfc =  40                 ! ENCUT in Rydberg, so 544eV
  ibrav = 0                     ! no symmetry
   nat              = 256
   ntyp             = 2
  occupations = 'smearing'      ! using smearing 
  smearing = 'mp'               ! methfessel paxton
  nosym= .true. 		! no symmetry
/
&ELECTRONS
  conv_thr =   1.0000000000d-12   	! EDIFF
  mixing_beta =   4.0000000000d-01      ! MIXING
  mixing_mode = 'local-TF'                 ! MIXING
/
&IONS
  !press_conv_thr = 0.05                 ! just for volume relaxations
/
ATOMIC_SPECIES
Si 28.085 Si.pbe-n-rrkjus_psl.1.0.0.UPF
Al 26.9815385 Al.pbe-n-kjpaw_psl.1.0.0.UPF

K_POINTS automatic
5 5 5 0 0 0
CELL_PARAMETERS angstrom
16.22799863997135 0.00000000000000 0.00000000000000
0.00000000000000 16.22799863997135 0.00000000000000
0.00000000000000 0.00000000000000 16.22799863997135

ATOMIC_POSITIONS angstrom
Si 16.2212738560 16.2212738560 0.0000000000 
Al 2.0121540090 0.0163478716 1.9951070943 
Si 2.0351901513 2.0351901513 0.0000000000 
Al 0.0163478716 2.0121540090 1.9951070943 
Al 0.0003222689 0.0003222689 4.0493190497 
Al 2.0281790825 2.0281790825 4.0493174621 
Al 2.0283785823 0.0001222399 6.0836582840 
Al 0.0001222399 2.0283785823 6.0836582840 
Al 16.2278573497 16.2278573497 8.1139995846 
Al 2.0286421125 2.0286421125 8.1139995846 
Al 2.0283785823 0.0001222399 10.1443403559 
Al 0.0001222399 2.0283785823 10.1443403559 
Al 0.0003222689 0.0003222689 12.1786801195 
Al 2.0281790825 2.0281790825 12.1786811778 
Al 2.0121540090 0.0163478716 14.2328920748 
Al 0.0163478716 2.0121540090 14.2328920748 
Al 0.0126843777 4.0395472633 0.0000000000 
Al 2.0285193434 6.0800688750 0.0000000000 
Al 2.0282002495 4.0447046244 2.0167139290 
Al 0.0001561073 6.0833719992 2.0281886076 
Al 16.2279817063 4.0543446456 4.0530497490 
Al 2.0282372920 6.0832592844 4.0546700896 
Al 2.0282923264 4.0566105824 6.0844922673 
Al 0.0001740993 6.0853453010 6.0855448008 
Al 16.2278721666 4.0567725107 8.1139995846 
Al 2.0284955304 6.0853236047 8.1139995846 
Al 2.0282923264 4.0566105824 10.1435063727 
Al 0.0001740993 6.0853453010 10.1424538392 
Al 16.2279817063 4.0543446456 12.1749488910 
Al 2.0282372920 6.0832592844 12.1733290795 
Al 2.0282002495 4.0447046244 14.2112847110 
Al 0.0001561073 6.0833719992 14.1998100323 
Al 0.0001285901 8.1131984103 0.0000000000 
Al 2.0283722321 10.1432994644 0.0000000000 
Al 2.0286161828 8.1132772577 2.0285272811 
Al 16.2278827502 10.1432206170 2.0285272811 
Al 0.0001270025 8.1139678339 4.0564714088 
Al 2.0283743489 10.1425305699 4.0564719380 
Al 2.0285077015 8.1142313642 6.0858818867 
Al 16.2279944066 10.1422680980 6.0858813575 
Al 16.2279700644 8.1142239557 8.1139995846 
Al 2.0285315145 10.1422744481 8.1139995846 
Al 2.0285077015 8.1142313642 10.1421167533 
Al 16.2279944066 10.1422680980 10.1421178117 
Al 0.0001270025 8.1139678339 12.1715272311 
Al 2.0283743489 10.1425305699 12.1715267020 
Al 2.0286161828 8.1132772577 14.1994713589 
Al 16.2278827502 10.1432206170 14.1994718881 
Al 16.2279801188 12.1764274121 0.0000000000 
Al 2.0158190904 14.2169511405 0.0000000000 
Al 2.0283457733 12.1731258755 2.0281891368 
Al 0.0003016310 14.2117937794 2.0167160457 
Al 0.0002645886 12.1732391194 4.0546706188 
Al 2.0285182851 14.2021537582 4.0530508074 
Al 2.0283272521 12.1711531028 6.0855458591 
Al 0.0002095542 14.1998888797 6.0844927965 
Al 0.0000084668 12.1711763866 8.1139995846 
Al 2.0286267664 14.1997253640 8.1139995846 
Al 2.0283272521 12.1711531028 10.1424527808 
Al 0.0002095542 14.1998888797 10.1435058435 
Al 0.0002645886 12.1732391194 12.1733280212 
Al 2.0285182851 14.2021537582 12.1749478326 
Al 2.0283457733 12.1731258755 14.1998095031 
Al 0.0003016310 14.2117937794 14.2112831234 
Al 4.0395472633 0.0126843777 0.0000000000 
Al 6.0800688750 2.0285193434 0.0000000000 
Al 6.0833719992 0.0001561073 2.0281886076 
Al 4.0447046244 2.0282002495 2.0167139290 
Al 4.0543446456 16.2279817063 4.0530497490 
Al 6.0832592844 2.0282372920 4.0546700896 
Al 6.0853453010 0.0001740993 6.0855448008 
Al 4.0566105824 2.0282923264 6.0844922673 
Al 4.0567725107 16.2278721666 8.1139995846 
Al 6.0853236047 2.0284955304 8.1139995846 
Al 6.0853453010 0.0001740993 10.1424538392 
Al 4.0566105824 2.0282923264 10.1435063727 
Al 4.0543446456 16.2279817063 12.1749488910 
Al 6.0832592844 2.0282372920 12.1733290795 
Al 6.0833719992 0.0001561073 14.1998100323 
Al 4.0447046244 2.0282002495 14.2112847110 
Al 4.0400812031 4.0400812031 0.0000000000 
Al 6.0839048806 6.0839048806 0.0000000000 
Al 6.0832778056 4.0563888572 2.0276557262 
Al 4.0563888572 6.0832778056 2.0276557262 
Al 4.0576768745 4.0576768745 4.0564867550 
Al 6.0860824448 6.0860824448 4.0574921917 
Al 6.0852643369 4.0567317640 6.0854357903 
Al 4.0567317640 6.0852643369 6.0854357903 
Al 4.0571133008 4.0571133008 8.1139995846 
Al 6.0852421114 6.0852421114 8.1139995846 
Al 6.0852643369 4.0567317640 10.1425628497 
Al 4.0567317640 6.0852643369 10.1425628497 
Al 4.0576768745 4.0576768745 12.1715118850 
Al 6.0860824448 6.0860824448 12.1705064483 
Al 6.0832778056 4.0563888572 14.2003429138 
Al 4.0563888572 6.0832778056 14.2003429138 
Al 4.0565211515 8.1131296172 0.0000000000 
Al 6.0854601324 10.1423437703 0.0000000000 
Al 6.0855220462 8.1140958948 2.0285119349 
Al 4.0568524164 10.1425284532 2.0283976326 
Al 4.0568497705 8.1138741696 4.0567418184 
Al 6.0855098751 10.1425199863 4.0569439641 
Al 6.0853389509 8.1140228684 6.0853336591 
Al 4.0570032319 10.1424226177 6.0857189001 
Al 4.0570868419 8.1141726255 8.1139995846 
Al 6.0853056127 10.1427337739 8.1139995846 
Al 6.0853389509 8.1140228684 10.1426655101 
Al 4.0570032319 10.1424226177 10.1422802691 
Al 4.0568497705 8.1138741696 12.1712568216 
Al 6.0855098751 10.1425199863 12.1710546759 
Al 6.0855220462 8.1140958948 14.1994872342 
Al 4.0568524164 10.1425284532 14.1996010073 
Al 4.0545621375 12.1741985177 0.0000000000 
Al 6.0823004153 14.2019373247 0.0000000000 
Al 6.0850664246 12.1714325084 2.0281219313 
Al 4.0551304738 14.2013695176 2.0283838740 
Al 4.0575673348 12.1703090652 4.0574906041 
Al 6.0861888095 14.1989315982 4.0574895458 
Al 6.0855945434 12.1709028020 6.0856305275 
Al 4.0566005281 14.1998978757 6.0854310277 
Al 4.0569534893 12.1708287172 8.1139995846 
Al 6.0856680991 14.1995438562 8.1139995846 
Al 6.0855945434 12.1709028020 10.1423681125 
Al 4.0566005281 14.1998978757 10.1425676123 
Al 4.0575673348 12.1703090652 12.1705085650 
Al 6.0861888095 14.1989315982 12.1705090942 
Al 6.0850664246 12.1714325084 14.1998767087 
Al 4.0551304738 14.2013695176 14.1996147659 
Al 8.1131984103 0.0001285901 0.0000000000 
Al 10.1432994644 2.0283722321 0.0000000000 
Al 10.1432206170 16.2278827502 2.0285272811 
Al 8.1132772577 2.0286161828 2.0285272811 
Al 8.1139678339 0.0001270025 4.0564714088 
Al 10.1425305699 2.0283743489 4.0564719380 
Al 10.1422680980 16.2279944066 6.0858813575 
Al 8.1142313642 2.0285077015 6.0858818867 
Al 8.1142239557 16.2279700644 8.1139995846 
Al 10.1422744481 2.0285315145 8.1139995846 
Al 10.1422680980 16.2279944066 10.1421178117 
Al 8.1142313642 2.0285077015 10.1421167533 
Al 8.1139678339 0.0001270025 12.1715272311 
Al 10.1425305699 2.0283743489 12.1715267020 
Al 10.1432206170 16.2278827502 14.1994718881 
Al 8.1132772577 2.0286161828 14.1994713589 
Al 8.1131296172 4.0565211515 0.0000000000 
Al 10.1423437703 6.0854601324 0.0000000000 
Al 10.1425284532 4.0568524164 2.0283976326 
Al 8.1140958948 6.0855220462 2.0285119349 
Al 8.1138741696 4.0568497705 4.0567418184 
Al 10.1425199863 6.0855098751 4.0569439641 
Al 10.1424226177 4.0570032319 6.0857189001 
Al 8.1140228684 6.0853389509 6.0853336591 
Al 8.1141726255 4.0570868419 8.1139995846 
Al 10.1427337739 6.0853056127 8.1139995846 
Al 10.1424226177 4.0570032319 10.1422802691 
Al 8.1140228684 6.0853389509 10.1426655101 
Al 8.1138741696 4.0568497705 12.1712568216 
Al 10.1425199863 6.0855098751 12.1710546759 
Al 10.1425284532 4.0568524164 14.1996010073 
Al 8.1140958948 6.0855220462 14.1994872342 
Al 8.1140577941 8.1140577941 0.0000000000 
Al 10.1424421973 10.1424421973 0.0000000000 
Al 10.1422479892 8.1142514729 2.0284526671 
Al 8.1142514729 10.1422479892 2.0284526671 
Al 8.1141885008 8.1141885008 4.0571455806 
Al 10.1423088446 10.1423088446 4.0571434639 
Al 10.1427618203 8.1137339376 6.0850902376 
Al 8.1137339376 10.1427618203 6.0850902376 
Al 8.1138313062 8.1138313062 8.1139995846 
Al 10.1426644517 10.1426644517 8.1139995846 
Al 10.1427618203 8.1137339376 10.1429084024 
Al 8.1137339376 10.1427618203 10.1429084024 
Al 8.1141885008 8.1141885008 12.1708535885 
Al 10.1423088446 10.1423088446 12.1708557052 
Al 10.1422479892 8.1142514729 14.1995465021 
Al 8.1142514729 10.1422479892 14.1995465021 
Al 8.1141562210 12.1710382714 0.0000000000 
Al 10.1433682574 14.1999767231 0.0000000000 
Al 10.1424019798 12.1709763577 2.0285098182 
Al 8.1139704798 14.1996465166 2.0283971035 
Al 8.1139773591 12.1709885287 4.0569429057 
Al 10.1426237051 14.1996502208 4.0567402309 
Al 10.1424744771 12.1711594530 6.0853315424 
Al 8.1140747277 14.1994962302 6.0857173126 
Al 8.1137619840 12.1711912036 8.1139995846 
Al 10.1423263075 14.1994142078 8.1139995846 
Al 10.1424744771 12.1711594530 10.1426670976 
Al 8.1140747277 14.1994962302 10.1422813274 
Al 8.1139773591 12.1709885287 12.1710562634 
Al 10.1426237051 14.1996502208 12.1712584091 
Al 10.1424019798 12.1709763577 14.1994893509 
Al 8.1139704798 14.1996465166 14.1996015365 
Al 12.1764274121 16.2279801188 0.0000000000 
Al 14.2169511405 2.0158190904 0.0000000000 
Al 14.2117937794 0.0003016310 2.0167160457 
Al 12.1731258755 2.0283457733 2.0281891368 
Al 12.1732391194 0.0002645886 4.0546706188 
Al 14.2021537582 2.0285182851 4.0530508074 
Al 14.1998888797 0.0002095542 6.0844927965 
Al 12.1711531028 2.0283272521 6.0855458591 
Al 12.1711763866 0.0000084668 8.1139995846 
Al 14.1997253640 2.0286267664 8.1139995846 
Al 14.1998888797 0.0002095542 10.1435058435 
Al 12.1711531028 2.0283272521 10.1424527808 
Al 12.1732391194 0.0002645886 12.1733280212 
Al 14.2021537582 2.0285182851 12.1749478326 
Al 14.2117937794 0.0003016310 14.2112831234 
Al 12.1731258755 2.0283457733 14.1998095031 
Al 12.1741985177 4.0545621375 0.0000000000 
Al 14.2019373247 6.0823004153 0.0000000000 
Al 14.2013695176 4.0551304738 2.0283838740 
Al 12.1714325084 6.0850664246 2.0281219313 
Al 12.1703090652 4.0575673348 4.0574906041 
Al 14.1989315982 6.0861888095 4.0574895458 
Al 14.1998978757 4.0566005281 6.0854310277 
Al 12.1709028020 6.0855945434 6.0856305275 
Al 12.1708287172 4.0569534893 8.1139995846 
Al 14.1995438562 6.0856680991 8.1139995846 
Al 14.1998978757 4.0566005281 10.1425676123 
Al 12.1709028020 6.0855945434 10.1423681125 
Al 12.1703090652 4.0575673348 12.1705085650 
Al 14.1989315982 6.0861888095 12.1705090942 
Al 14.2013695176 4.0551304738 14.1996147659 
Al 12.1714325084 6.0850664246 14.1998767087 
Al 12.1710382714 8.1141562210 0.0000000000 
Al 14.1999767231 10.1433682574 0.0000000000 
Al 14.1996465166 8.1139704798 2.0283971035 
Al 12.1709763577 10.1424019798 2.0285098182 
Al 12.1709885287 8.1139773591 4.0569429057 
Al 14.1996502208 10.1426237051 4.0567402309 
Al 14.1994962302 8.1140747277 6.0857173126 
Al 12.1711594530 10.1424744771 6.0853315424 
Al 12.1711912036 8.1137619840 8.1139995846 
Al 14.1994142078 10.1423263075 8.1139995846 
Al 14.1994962302 8.1140747277 10.1422813274 
Al 12.1711594530 10.1424744771 10.1426670976 
Al 12.1709885287 8.1139773591 12.1710562634 
Al 14.1996502208 10.1426237051 12.1712584091 
Al 14.1996465166 8.1139704798 14.1996015365 
Al 12.1709763577 10.1424019798 14.1994893509 
Al 12.1725914065 12.1725914065 0.0000000000 
Al 14.2164150840 14.2164150840 0.0000000000 
Al 14.2001100758 12.1732184815 2.0276557262 
Al 12.1732184815 14.2001100758 2.0276557262 
Al 12.1704159590 12.1704159590 4.0574906041 
Al 14.1988231168 14.1988231168 4.0564878133 
Al 14.1997692857 12.1712356545 6.0854347319 
Al 12.1712356545 14.1997692857 6.0854347319 
Al 12.1712578799 12.1712578799 8.1139995846 
Al 14.1993882781 14.1993882781 8.1139995846 
Al 14.1997692857 12.1712356545 10.1425639080 
Al 12.1712356545 14.1997692857 10.1425639080 
Al 12.1704159590 12.1704159590 12.1705085650 
Al 14.1988231168 14.1988231168 12.1715108266 
Al 14.2001100758 12.1732184815 14.2003429138 
Al 12.1732184815 14.2001100758 14.2003429138 

