Al 
 1.0000000000000000
     4.0420731855383485    0.0000000000000000    0.0000000000000000
     0.0000000000000000    4.0420731855383485    0.0000000000000000
     0.0000000000000000    0.0000000000000000    4.0420731855383485
   4
Cartesian
  0.0000000000000000  0.0000000000000000  0.0000000000000000
  0.0000000000000000  2.0210365927691738  2.0210365927691738
  2.0210365927691738  0.0000000000000000  2.0210365927691738
  2.0210365927691738  2.0210365927691738  0.0000000000000000
