&CONTROL
/
&SYSTEM
   ntyp             = 1
   nat              = 255
   ibrav            = 0
/
&ELECTRONS
/
&IONS
/
&CELL
/

ATOMIC_SPECIES
Al 26.9815385 Al_dummy.UPF

K_POINTS gamma

CELL_PARAMETERS angstrom
16.22800000000970 0.00000000000000 0.00000000000000
0.00000000000000 16.22800000000970 0.00000000000000
0.00000000000000 0.00000000000000 16.22800000000970

ATOMIC_POSITIONS angstrom
Al 2.0285000000 2.0285000000 0.0000000000 
Al 2.0285000000 0.0000000000 2.0285000000 
Al 0.0000000000 2.0285000000 2.0285000000 
Al 0.0000000000 0.0000000000 4.0570000000 
Al 2.0285000000 2.0285000000 4.0570000000 
Al 2.0285000000 0.0000000000 6.0855000000 
Al 0.0000000000 2.0285000000 6.0855000000 
Al 0.0000000000 0.0000000000 8.1140000000 
Al 2.0285000000 2.0285000000 8.1140000000 
Al 2.0285000000 0.0000000000 10.1425000000 
Al 0.0000000000 2.0285000000 10.1425000000 
Al 0.0000000000 0.0000000000 12.1710000000 
Al 2.0285000000 2.0285000000 12.1710000000 
Al 2.0285000000 0.0000000000 14.1995000000 
Al 0.0000000000 2.0285000000 14.1995000000 
Al 0.0000000000 4.0570000000 0.0000000000 
Al 2.0285000000 6.0855000000 0.0000000000 
Al 2.0285000000 4.0570000000 2.0285000000 
Al 0.0000000000 6.0855000000 2.0285000000 
Al 0.0000000000 4.0570000000 4.0570000000 
Al 2.0285000000 6.0855000000 4.0570000000 
Al 2.0285000000 4.0570000000 6.0855000000 
Al 0.0000000000 6.0855000000 6.0855000000 
Al 0.0000000000 4.0570000000 8.1140000000 
Al 2.0285000000 6.0855000000 8.1140000000 
Al 2.0285000000 4.0570000000 10.1425000000 
Al 0.0000000000 6.0855000000 10.1425000000 
Al 0.0000000000 4.0570000000 12.1710000000 
Al 2.0285000000 6.0855000000 12.1710000000 
Al 2.0285000000 4.0570000000 14.1995000000 
Al 0.0000000000 6.0855000000 14.1995000000 
Al 0.0000000000 8.1140000000 0.0000000000 
Al 2.0285000000 10.1425000000 0.0000000000 
Al 2.0285000000 8.1140000000 2.0285000000 
Al 0.0000000000 10.1425000000 2.0285000000 
Al 0.0000000000 8.1140000000 4.0570000000 
Al 2.0285000000 10.1425000000 4.0570000000 
Al 2.0285000000 8.1140000000 6.0855000000 
Al 0.0000000000 10.1425000000 6.0855000000 
Al 0.0000000000 8.1140000000 8.1140000000 
Al 2.0285000000 10.1425000000 8.1140000000 
Al 2.0285000000 8.1140000000 10.1425000000 
Al 0.0000000000 10.1425000000 10.1425000000 
Al 0.0000000000 8.1140000000 12.1710000000 
Al 2.0285000000 10.1425000000 12.1710000000 
Al 2.0285000000 8.1140000000 14.1995000000 
Al 0.0000000000 10.1425000000 14.1995000000 
Al 0.0000000000 12.1710000000 0.0000000000 
Al 2.0285000000 14.1995000000 0.0000000000 
Al 2.0285000000 12.1710000000 2.0285000000 
Al 0.0000000000 14.1995000000 2.0285000000 
Al 0.0000000000 12.1710000000 4.0570000000 
Al 2.0285000000 14.1995000000 4.0570000000 
Al 2.0285000000 12.1710000000 6.0855000000 
Al 0.0000000000 14.1995000000 6.0855000000 
Al 0.0000000000 12.1710000000 8.1140000000 
Al 2.0285000000 14.1995000000 8.1140000000 
Al 2.0285000000 12.1710000000 10.1425000000 
Al 0.0000000000 14.1995000000 10.1425000000 
Al 0.0000000000 12.1710000000 12.1710000000 
Al 2.0285000000 14.1995000000 12.1710000000 
Al 2.0285000000 12.1710000000 14.1995000000 
Al 0.0000000000 14.1995000000 14.1995000000 
Al 4.0570000000 0.0000000000 0.0000000000 
Al 6.0855000000 2.0285000000 0.0000000000 
Al 6.0855000000 0.0000000000 2.0285000000 
Al 4.0570000000 2.0285000000 2.0285000000 
Al 4.0570000000 0.0000000000 4.0570000000 
Al 6.0855000000 2.0285000000 4.0570000000 
Al 6.0855000000 0.0000000000 6.0855000000 
Al 4.0570000000 2.0285000000 6.0855000000 
Al 4.0570000000 0.0000000000 8.1140000000 
Al 6.0855000000 2.0285000000 8.1140000000 
Al 6.0855000000 0.0000000000 10.1425000000 
Al 4.0570000000 2.0285000000 10.1425000000 
Al 4.0570000000 0.0000000000 12.1710000000 
Al 6.0855000000 2.0285000000 12.1710000000 
Al 6.0855000000 0.0000000000 14.1995000000 
Al 4.0570000000 2.0285000000 14.1995000000 
Al 4.0570000000 4.0570000000 0.0000000000 
Al 6.0855000000 6.0855000000 0.0000000000 
Al 6.0855000000 4.0570000000 2.0285000000 
Al 4.0570000000 6.0855000000 2.0285000000 
Al 4.0570000000 4.0570000000 4.0570000000 
Al 6.0855000000 6.0855000000 4.0570000000 
Al 6.0855000000 4.0570000000 6.0855000000 
Al 4.0570000000 6.0855000000 6.0855000000 
Al 4.0570000000 4.0570000000 8.1140000000 
Al 6.0855000000 6.0855000000 8.1140000000 
Al 6.0855000000 4.0570000000 10.1425000000 
Al 4.0570000000 6.0855000000 10.1425000000 
Al 4.0570000000 4.0570000000 12.1710000000 
Al 6.0855000000 6.0855000000 12.1710000000 
Al 6.0855000000 4.0570000000 14.1995000000 
Al 4.0570000000 6.0855000000 14.1995000000 
Al 4.0570000000 8.1140000000 0.0000000000 
Al 6.0855000000 10.1425000000 0.0000000000 
Al 6.0855000000 8.1140000000 2.0285000000 
Al 4.0570000000 10.1425000000 2.0285000000 
Al 4.0570000000 8.1140000000 4.0570000000 
Al 6.0855000000 10.1425000000 4.0570000000 
Al 6.0855000000 8.1140000000 6.0855000000 
Al 4.0570000000 10.1425000000 6.0855000000 
Al 4.0570000000 8.1140000000 8.1140000000 
Al 6.0855000000 10.1425000000 8.1140000000 
Al 6.0855000000 8.1140000000 10.1425000000 
Al 4.0570000000 10.1425000000 10.1425000000 
Al 4.0570000000 8.1140000000 12.1710000000 
Al 6.0855000000 10.1425000000 12.1710000000 
Al 6.0855000000 8.1140000000 14.1995000000 
Al 4.0570000000 10.1425000000 14.1995000000 
Al 4.0570000000 12.1710000000 0.0000000000 
Al 6.0855000000 14.1995000000 0.0000000000 
Al 6.0855000000 12.1710000000 2.0285000000 
Al 4.0570000000 14.1995000000 2.0285000000 
Al 4.0570000000 12.1710000000 4.0570000000 
Al 6.0855000000 14.1995000000 4.0570000000 
Al 6.0855000000 12.1710000000 6.0855000000 
Al 4.0570000000 14.1995000000 6.0855000000 
Al 4.0570000000 12.1710000000 8.1140000000 
Al 6.0855000000 14.1995000000 8.1140000000 
Al 6.0855000000 12.1710000000 10.1425000000 
Al 4.0570000000 14.1995000000 10.1425000000 
Al 4.0570000000 12.1710000000 12.1710000000 
Al 6.0855000000 14.1995000000 12.1710000000 
Al 6.0855000000 12.1710000000 14.1995000000 
Al 4.0570000000 14.1995000000 14.1995000000 
Al 8.1140000000 0.0000000000 0.0000000000 
Al 10.1425000000 2.0285000000 0.0000000000 
Al 10.1425000000 0.0000000000 2.0285000000 
Al 8.1140000000 2.0285000000 2.0285000000 
Al 8.1140000000 0.0000000000 4.0570000000 
Al 10.1425000000 2.0285000000 4.0570000000 
Al 10.1425000000 0.0000000000 6.0855000000 
Al 8.1140000000 2.0285000000 6.0855000000 
Al 8.1140000000 0.0000000000 8.1140000000 
Al 10.1425000000 2.0285000000 8.1140000000 
Al 10.1425000000 0.0000000000 10.1425000000 
Al 8.1140000000 2.0285000000 10.1425000000 
Al 8.1140000000 0.0000000000 12.1710000000 
Al 10.1425000000 2.0285000000 12.1710000000 
Al 10.1425000000 0.0000000000 14.1995000000 
Al 8.1140000000 2.0285000000 14.1995000000 
Al 8.1140000000 4.0570000000 0.0000000000 
Al 10.1425000000 6.0855000000 0.0000000000 
Al 10.1425000000 4.0570000000 2.0285000000 
Al 8.1140000000 6.0855000000 2.0285000000 
Al 8.1140000000 4.0570000000 4.0570000000 
Al 10.1425000000 6.0855000000 4.0570000000 
Al 10.1425000000 4.0570000000 6.0855000000 
Al 8.1140000000 6.0855000000 6.0855000000 
Al 8.1140000000 4.0570000000 8.1140000000 
Al 10.1425000000 6.0855000000 8.1140000000 
Al 10.1425000000 4.0570000000 10.1425000000 
Al 8.1140000000 6.0855000000 10.1425000000 
Al 8.1140000000 4.0570000000 12.1710000000 
Al 10.1425000000 6.0855000000 12.1710000000 
Al 10.1425000000 4.0570000000 14.1995000000 
Al 8.1140000000 6.0855000000 14.1995000000 
Al 8.1140000000 8.1140000000 0.0000000000 
Al 10.1425000000 10.1425000000 0.0000000000 
Al 10.1425000000 8.1140000000 2.0285000000 
Al 8.1140000000 10.1425000000 2.0285000000 
Al 8.1140000000 8.1140000000 4.0570000000 
Al 10.1425000000 10.1425000000 4.0570000000 
Al 10.1425000000 8.1140000000 6.0855000000 
Al 8.1140000000 10.1425000000 6.0855000000 
Al 8.1140000000 8.1140000000 8.1140000000 
Al 10.1425000000 10.1425000000 8.1140000000 
Al 10.1425000000 8.1140000000 10.1425000000 
Al 8.1140000000 10.1425000000 10.1425000000 
Al 8.1140000000 8.1140000000 12.1710000000 
Al 10.1425000000 10.1425000000 12.1710000000 
Al 10.1425000000 8.1140000000 14.1995000000 
Al 8.1140000000 10.1425000000 14.1995000000 
Al 8.1140000000 12.1710000000 0.0000000000 
Al 10.1425000000 14.1995000000 0.0000000000 
Al 10.1425000000 12.1710000000 2.0285000000 
Al 8.1140000000 14.1995000000 2.0285000000 
Al 8.1140000000 12.1710000000 4.0570000000 
Al 10.1425000000 14.1995000000 4.0570000000 
Al 10.1425000000 12.1710000000 6.0855000000 
Al 8.1140000000 14.1995000000 6.0855000000 
Al 8.1140000000 12.1710000000 8.1140000000 
Al 10.1425000000 14.1995000000 8.1140000000 
Al 10.1425000000 12.1710000000 10.1425000000 
Al 8.1140000000 14.1995000000 10.1425000000 
Al 8.1140000000 12.1710000000 12.1710000000 
Al 10.1425000000 14.1995000000 12.1710000000 
Al 10.1425000000 12.1710000000 14.1995000000 
Al 8.1140000000 14.1995000000 14.1995000000 
Al 12.1710000000 0.0000000000 0.0000000000 
Al 14.1995000000 2.0285000000 0.0000000000 
Al 14.1995000000 0.0000000000 2.0285000000 
Al 12.1710000000 2.0285000000 2.0285000000 
Al 12.1710000000 0.0000000000 4.0570000000 
Al 14.1995000000 2.0285000000 4.0570000000 
Al 14.1995000000 0.0000000000 6.0855000000 
Al 12.1710000000 2.0285000000 6.0855000000 
Al 12.1710000000 0.0000000000 8.1140000000 
Al 14.1995000000 2.0285000000 8.1140000000 
Al 14.1995000000 0.0000000000 10.1425000000 
Al 12.1710000000 2.0285000000 10.1425000000 
Al 12.1710000000 0.0000000000 12.1710000000 
Al 14.1995000000 2.0285000000 12.1710000000 
Al 14.1995000000 0.0000000000 14.1995000000 
Al 12.1710000000 2.0285000000 14.1995000000 
Al 12.1710000000 4.0570000000 0.0000000000 
Al 14.1995000000 6.0855000000 0.0000000000 
Al 14.1995000000 4.0570000000 2.0285000000 
Al 12.1710000000 6.0855000000 2.0285000000 
Al 12.1710000000 4.0570000000 4.0570000000 
Al 14.1995000000 6.0855000000 4.0570000000 
Al 14.1995000000 4.0570000000 6.0855000000 
Al 12.1710000000 6.0855000000 6.0855000000 
Al 12.1710000000 4.0570000000 8.1140000000 
Al 14.1995000000 6.0855000000 8.1140000000 
Al 14.1995000000 4.0570000000 10.1425000000 
Al 12.1710000000 6.0855000000 10.1425000000 
Al 12.1710000000 4.0570000000 12.1710000000 
Al 14.1995000000 6.0855000000 12.1710000000 
Al 14.1995000000 4.0570000000 14.1995000000 
Al 12.1710000000 6.0855000000 14.1995000000 
Al 12.1710000000 8.1140000000 0.0000000000 
Al 14.1995000000 10.1425000000 0.0000000000 
Al 14.1995000000 8.1140000000 2.0285000000 
Al 12.1710000000 10.1425000000 2.0285000000 
Al 12.1710000000 8.1140000000 4.0570000000 
Al 14.1995000000 10.1425000000 4.0570000000 
Al 14.1995000000 8.1140000000 6.0855000000 
Al 12.1710000000 10.1425000000 6.0855000000 
Al 12.1710000000 8.1140000000 8.1140000000 
Al 14.1995000000 10.1425000000 8.1140000000 
Al 14.1995000000 8.1140000000 10.1425000000 
Al 12.1710000000 10.1425000000 10.1425000000 
Al 12.1710000000 8.1140000000 12.1710000000 
Al 14.1995000000 10.1425000000 12.1710000000 
Al 14.1995000000 8.1140000000 14.1995000000 
Al 12.1710000000 10.1425000000 14.1995000000 
Al 12.1710000000 12.1710000000 0.0000000000 
Al 14.1995000000 14.1995000000 0.0000000000 
Al 14.1995000000 12.1710000000 2.0285000000 
Al 12.1710000000 14.1995000000 2.0285000000 
Al 12.1710000000 12.1710000000 4.0570000000 
Al 14.1995000000 14.1995000000 4.0570000000 
Al 14.1995000000 12.1710000000 6.0855000000 
Al 12.1710000000 14.1995000000 6.0855000000 
Al 12.1710000000 12.1710000000 8.1140000000 
Al 14.1995000000 14.1995000000 8.1140000000 
Al 14.1995000000 12.1710000000 10.1425000000 
Al 12.1710000000 14.1995000000 10.1425000000 
Al 12.1710000000 12.1710000000 12.1710000000 
Al 14.1995000000 14.1995000000 12.1710000000 
Al 14.1995000000 12.1710000000 14.1995000000 
Al 12.1710000000 14.1995000000 14.1995000000 

