&CONTROL
/
&SYSTEM
   ntyp             = 3
   nat              = 22
   ibrav            = 0
/
&ELECTRONS
/
&IONS
/
&CELL
/

ATOMIC_SPECIES
Al 26.9815385 Al_dummy.UPF
Mg 24.305 Mg_dummy.UPF
Si 28.085 Si_dummy.UPF

K_POINTS gamma

CELL_PARAMETERS angstrom
14.49965983185253 0.00206061605794 -4.31685675954080
0.00724972778472 4.12158666460227 -0.00215851384189
0.00000000000000 0.00000000000000 6.64555081728478

ATOMIC_POSITIONS angstrom
Al 0.0258799407 4.1213993359 6.5616487122 
Mg 1.0644822932 2.0601609655 1.9122109551 
Mg 2.2450882919 2.0603435317 5.3194226732 
Mg 5.0529427886 4.1220359361 -0.9987875884 
Mg 6.2335620167 4.1222185022 2.4085008604 
Si 0.8624964103 4.1212358201 4.0861196204 
Si 2.6628684079 0.0007874157 0.5774630435 
Al 3.1787177612 0.0004974266 3.0978663627 
Al 4.1120064404 2.0602969641 1.2249161232 
Si 4.6277922925 2.0600069750 3.7453030380 
Si 6.4354563520 2.0611441768 0.2345636195 
Al 7.2721051014 2.0609806610 4.4046001620 
Mg 8.3181693818 4.1214723623 -0.2467955508 
Mg 9.4987155835 4.1218237360 3.1600796107 
Mg 12.2989732122 2.0626158186 -3.1563007562 
Mg 13.4795342308 2.0629682506 0.2506506067 
Si 8.1088649781 2.0609785443 1.9290276777 
Si 9.9162533363 2.0624517737 -1.5819207657 
Al 10.4322857849 2.0623046624 0.9384275191 
Al 11.3653479763 4.1221370089 -0.9346608357 
Si 11.8813153361 4.1219893685 1.5856726322 
Si 13.6887481452 4.1234615395 -1.9252022556 

