&CONTROL
/
&SYSTEM
   ntyp             = 3
   nat              = 256
   ibrav            = 0
/
&ELECTRONS
/
&IONS
/
&CELL
/

ATOMIC_SPECIES
Mg 24.305 Mg_dummy.UPF
Al 26.9815385 Al_dummy.UPF
Si 28.085 Si_dummy.UPF

K_POINTS gamma

CELL_PARAMETERS angstrom
16.22799863997135 0.00000000000000 0.00000000000000
0.00000000000000 16.22799863997135 0.00000000000000
0.00000000000000 0.00000000000000 16.22799863997135

ATOMIC_POSITIONS angstrom
Mg 0.0008906052 0.0025543384 0.0008906052 
Al 2.0514311291 0.0046260672 2.0514311291 
Al 2.0509299983 2.0624427777 0.0116900538 
Al 0.0116900538 2.0624427777 2.0509299983 
Al 0.0001301776 0.0011631315 4.0593220865 
Al 2.0297861936 2.0406909484 4.0504340260 
Al 2.0284526671 0.0017224718 6.0850108610 
Al 0.0000576803 2.0284833594 6.0856580447 
Al 0.0001449946 0.0002291337 8.1139493127 
Al 2.0284193289 2.0284611339 8.1134005560 
Al 2.0284341459 0.0002958101 10.1413129331 
Al 16.2278838085 2.0283330730 10.1412959994 
Al 0.0000915477 0.0001793911 12.1684304861 
Al 2.0297036420 2.0297592056 12.1674763796 
Al 2.0511882368 0.0016833127 14.1782116645 
Al 16.2278970379 2.0513173560 14.1775311426 
Al 0.0107026091 4.0595538661 0.0107026091 
Al 2.0284288541 6.0753015175 0.0111661683 
Si 2.0284516087 4.0591718001 2.0284516087 
Al 0.0111661683 6.0753015175 2.0284288541 
Al 0.0111370636 4.0585230289 4.0477473933 
Al 2.0284637798 6.0744140873 4.0462937436 
Al 2.0284240915 4.0572191362 6.0808420029 
Al 0.0000693222 6.0854601324 6.0843710857 
Al 0.0000587387 4.0573577807 8.1133571634 
Al 2.0285590317 6.0854267943 8.1132820203 
Al 2.0283785823 4.0572048485 10.1425940711 
Al 16.2278864544 6.0856559280 10.1424421973 
Al 0.0000402175 4.0585415501 12.1700550601 
Al 2.0283764656 6.0853490052 12.1714441503 
Al 2.0296390824 4.0610472042 14.2030115544 
Al 0.0000402175 6.0866698315 14.2005699308 
Al 0.0000375716 8.1128729663 0.0000375716 
Al 2.0284574297 10.1406562242 0.0000396883 
Al 2.0284129788 8.1089988599 2.0284129788 
Al 0.0000396883 10.1406562242 2.0284574297 
Al 0.0000201087 8.1129089503 4.0573371428 
Al 2.0283907533 10.1419294246 4.0571799771 
Al 2.0285558566 8.1122390120 6.0837260187 
Al 0.0001651033 10.1423908671 6.0852966167 
Al 0.0001354694 8.1137905596 8.1139741841 
Al 2.0285801988 10.1427120777 8.1142244849 
Al 2.0285717319 8.1137207082 10.1425051694 
Al 16.2279737686 10.1426152382 10.1424353180 
Al 0.0001312359 8.1137810344 12.1707033022 
Al 2.0283674695 10.1427914542 12.1706091087 
Al 2.0284362626 8.1123363806 14.2012456901 
Al 0.0001259442 10.1413161082 14.1997587021 
Al 16.2278853960 12.1687098917 16.2278853960 
Al 2.0510913973 14.1776322154 0.0000719681 
Al 2.0297136964 12.1668937555 2.0297136964 
Al 0.0000719681 14.1776322154 2.0510913973 
Al 16.2278695207 12.1694634400 4.0586780778 
Al 2.0297348635 14.1988897932 4.0611260516 
Al 2.0283817573 12.1707869122 6.0850796540 
Al 0.0001476404 14.1996068283 6.0864369936 
Al 16.2279811771 12.1706196922 8.1141726255 
Al 2.0284098037 14.1993866906 8.1142064929 
Al 2.0283939284 12.1707694494 10.1425670831 
Al 16.2279965233 14.1994083868 10.1413743177 
Al 16.2279975816 12.1694835487 12.1693348499 
Al 2.0296650121 14.1981288363 12.1667884492 
Al 2.0297084046 12.1669392647 14.1985818120 
Al 0.0000963103 14.1769797399 14.1770998632 
Al 4.0593220865 0.0011631315 0.0001301776 
Al 6.0856580447 2.0284833594 0.0000576803 
Al 6.0850108610 0.0017224718 2.0284526671 
Al 4.0504340260 2.0406909484 2.0297861936 
Al 4.0585230289 0.0010440666 4.0585230289 
Al 6.0842901216 2.0284780676 4.0571090674 
Al 6.0861623506 16.2273842652 6.0861623506 
Al 4.0571090674 2.0284780676 6.0842901216 
Al 4.0572154320 0.0002391881 8.1139461377 
Al 6.0853119628 2.0287034971 8.1139583088 
Al 6.0855537968 16.2279959941 10.1424575434 
Al 4.0573059213 2.0282653383 10.1425845460 
Al 4.0583642757 0.0002873432 12.1695444041 
Al 6.0852145942 2.0285272811 12.1708070209 
Al 6.0872307594 16.2274255411 14.1989919244 
Al 4.0609159682 2.0297528555 14.1994946427 
Al 4.0477473933 4.0585230289 0.0111370636 
Al 6.0843710857 6.0854601324 0.0000693222 
Al 6.0808420029 4.0572191362 2.0284240915 
Al 4.0462937436 6.0744140873 2.0284637798 
Al 4.0455401952 4.0569444933 4.0455401952 
Al 6.0843795526 6.0854040396 4.0569100967 
Al 6.0837196686 4.0569095676 6.0837196686 
Al 4.0569100967 6.0854040396 6.0843795526 
Al 4.0570566788 4.0571154175 8.1133238253 
Al 6.0853855184 6.0854685993 8.1139725965 
Al 6.0851373343 4.0568656459 10.1425956587 
Al 4.0569804773 6.0855363340 10.1425792542 
Al 4.0570148738 4.0570651457 12.1715849114 
Al 6.0851579722 6.0852452865 12.1712409463 
Al 6.0836466421 4.0571503432 14.2013578757 
Al 4.0570767876 6.0853082586 14.2007694306 
Al 4.0573371428 8.1129089503 0.0000201087 
Al 6.0852966167 10.1423908671 0.0001651033 
Al 6.0837260187 8.1122390120 2.0285558566 
Al 4.0571799771 10.1419294246 2.0283907533 
Al 4.0571307636 8.1130512990 4.0571307636 
Al 6.0851759643 10.1425109903 4.0566851964 
Al 6.0862401396 8.1146314222 6.0862401396 
Al 4.0566851964 10.1425109903 6.0851759643 
Al 4.0570265157 8.1137387002 8.1139233831 
Al 6.0855839599 10.1424104467 8.1140043472 
Al 6.0855733764 8.1139614838 10.1423734042 
Al 4.0568794045 10.1427655246 10.1426094173 
Al 4.0569926484 8.1137778593 12.1709176190 
Al 6.0854357903 10.1426237051 12.1711001851 
Al 6.0860845615 8.1145631583 14.1988575133 
Al 4.0570794335 10.1425607330 14.1998338453 
Al 4.0586780778 12.1694634400 16.2278695207 
Al 6.0864369936 14.1996068283 0.0001476404 
Al 6.0850796540 12.1707869122 2.0283817573 
Al 4.0611260516 14.1988897932 2.0297348635 
Al 4.0572254864 12.1709244983 4.0572254864 
Al 6.0852262361 14.1996142368 4.0571233552 
Al 6.0854008646 12.1711314066 6.0854008646 
Al 4.0571233552 14.1996142368 6.0852262361 
Al 4.0571397597 12.1708948644 8.1141731547 
Al 6.0855056417 14.1994078576 8.1140223392 
Al 6.0854585449 12.1711483402 10.1425946003 
Al 4.0572265447 14.1994253205 10.1426162966 
Al 4.0570709666 12.1709329651 12.1707503990 
Al 6.0853606471 14.1996147659 12.1707800329 
Al 6.0853654097 12.1707810913 14.1996470457 
Al 4.0609487772 14.1983505616 14.1985701701 
Al 8.1139493127 0.0002291337 0.0001449946 
Al 10.1412959994 2.0283330730 16.2278838085 
Al 10.1413129331 0.0002958101 2.0284341459 
Al 8.1134005560 2.0284611339 2.0284193289 
Al 8.1139461377 0.0002391881 4.0572154320 
Al 10.1425845460 2.0282653383 4.0573059213 
Al 10.1424575434 16.2279959941 6.0855537968 
Al 8.1139583088 2.0287034971 6.0853119628 
Al 8.1140218100 16.2279891148 8.1140218100 
Al 10.1425094028 2.0285547983 8.1141530460 
Al 10.1424707729 16.2279727103 10.1424707729 
Al 8.1141530460 2.0285547983 10.1425094028 
Al 8.1140244559 16.2279848814 12.1705826498 
Al 10.1426073006 2.0283743489 12.1705895291 
Al 10.1413319835 0.0000291047 14.1995962447 
Al 8.1139440210 2.0285616776 14.1998237909 
Al 8.1133571634 4.0573577807 0.0000587387 
Al 10.1424421973 6.0856559280 16.2278864544 
Al 10.1425940711 4.0572048485 2.0283785823 
Al 8.1132820203 6.0854267943 2.0285590317 
Al 8.1133238253 4.0571154175 4.0570566788 
Al 10.1425792542 6.0855363340 4.0569804773 
Al 10.1425956587 4.0568656459 6.0851373343 
Al 8.1139725965 6.0854685993 6.0853855184 
Al 8.1141805632 4.0571836814 8.1141805632 
Al 10.1423702292 6.0856172981 8.1141853258 
Al 10.1425972462 4.0568502997 10.1425972462 
Al 8.1141853258 6.0856172981 10.1423702292 
Al 8.1141974969 4.0571519307 12.1706403301 
Al 10.1425898377 6.0854177983 12.1709747701 
Al 10.1426004213 4.0571969108 14.1999216887 
Al 8.1139376708 6.0853855184 14.1996422831 
Al 8.1139741841 8.1137905596 0.0001354694 
Al 10.1424353180 10.1426152382 16.2279737686 
Al 10.1425051694 8.1137207082 2.0285717319 
Al 8.1142244849 10.1427120777 2.0285801988 
Al 8.1139233831 8.1137387002 4.0570265157 
Al 10.1426094173 10.1427655246 4.0568794045 
Al 10.1423734042 8.1139614838 6.0855733764 
Al 8.1140043472 10.1424104467 6.0855839599 
Al 8.1140191641 8.1139995846 8.1140191641 
Al 10.1423813419 10.1422061842 8.1138254853 
Al 10.1423988048 8.1140477397 10.1423988048 
Al 8.1138254853 10.1422061842 10.1423813419 
Al 8.1140318644 8.1140112265 12.1707615117 
Al 10.1426067714 10.1424120342 12.1713541902 
Al 10.1424977609 8.1139535462 14.1994613045 
Al 8.1140096389 10.1425215739 14.1994126202 
Al 8.1141726255 12.1706196922 16.2279811771 
Al 10.1413743177 14.1994083868 16.2279965233 
Al 10.1425670831 12.1707694494 2.0283939284 
Al 8.1142064929 14.1993866906 2.0284098037 
Al 8.1141731547 12.1708948644 4.0571397597 
Al 10.1426162966 14.1994253205 4.0572265447 
Al 10.1425946003 12.1711483402 6.0854585449 
Al 8.1140223392 14.1994078576 6.0855056417 
Al 8.1138085516 12.1707959082 8.1138085516 
Al 10.1424924691 14.1996211161 8.1138371272 
Al 10.1425972462 12.1711446360 10.1425972462 
Al 8.1138371272 14.1996211161 10.1424924691 
Al 8.1138207227 12.1708795182 12.1710710804 
Al 10.1425639080 14.1997851610 12.1709610115 
Al 10.1426178841 12.1708176045 14.1995957156 
Al 8.1140482689 14.1995417395 14.1995623774 
Al 12.1684304861 0.0001793911 0.0000915477 
Al 14.1775311426 2.0513173560 16.2278970379 
Al 14.1782116645 0.0016833127 2.0511882368 
Al 12.1674763796 2.0297592056 2.0297036420 
Al 12.1695444041 0.0002873432 4.0583642757 
Al 14.1994946427 2.0297528555 4.0609159682 
Al 14.1989919244 16.2274255411 6.0872307594 
Al 12.1708070209 2.0285272811 6.0852145942 
Al 12.1705826498 16.2279848814 8.1140244559 
Al 14.1998237909 2.0285616776 8.1139440210 
Al 14.1995962447 0.0000291047 10.1413319835 
Al 12.1705895291 2.0283743489 10.1426073006 
Al 12.1693941178 16.2279229676 12.1693941178 
Al 14.1985458280 2.0298015398 12.1668953430 
Al 14.1767638356 16.2276610249 14.1767638356 
Al 12.1668953430 2.0298015398 14.1985458280 
Al 12.1700550601 4.0585415501 0.0000402175 
Al 14.2005699308 6.0866698315 0.0000402175 
Al 14.2030115544 4.0610472042 2.0296390824 
Al 12.1714441503 6.0853490052 2.0283764656 
Al 12.1715849114 4.0570651457 4.0570148738 
Al 14.2007694306 6.0853082586 4.0570767876 
Al 14.2013578757 4.0571503432 6.0836466421 
Al 12.1712409463 6.0852452865 6.0851579722 
Al 12.1706403301 4.0571519307 8.1141974969 
Al 14.1996422831 6.0853855184 8.1139376708 
Al 14.1999216887 4.0571969108 10.1426004213 
Al 12.1709747701 6.0854177983 10.1425898377 
Al 12.1706853102 4.0571228260 12.1706853102 
Al 14.1997941570 6.0853013793 12.1707990833 
Al 14.1999788399 4.0611239349 14.1999788399 
Al 12.1707990833 6.0853013793 14.1997941570 
Al 12.1707033022 8.1137810344 0.0001312359 
Al 14.1997587021 10.1413161082 0.0001259442 
Al 14.2012456901 8.1123363806 2.0284362626 
Al 12.1706091087 10.1427914542 2.0283674695 
Al 12.1709176190 8.1137778593 4.0569926484 
Al 14.1998338453 10.1425607330 4.0570794335 
Al 14.1988575133 8.1145631583 6.0860845615 
Al 12.1711001851 10.1426237051 6.0854357903 
Al 12.1707615117 8.1140112265 8.1140318644 
Al 14.1994126202 10.1425215739 8.1140096389 
Al 14.1994613045 8.1139535462 10.1424977609 
Al 12.1713541902 10.1424120342 10.1426067714 
Al 12.1708266005 8.1140133432 12.1708266005 
Al 14.1996158243 10.1426501639 12.1707556908 
Al 14.1989903368 8.1145779753 14.1989903368 
Al 12.1707556908 10.1426501639 14.1996158243 
Al 12.1693348499 12.1694835487 16.2279975816 
Al 14.1770998632 14.1769797399 0.0000963103 
Al 14.1985818120 12.1669392647 2.0297084046 
Al 12.1667884492 14.1981288363 2.0296650121 
Al 12.1707503990 12.1709329651 4.0570709666 
Al 14.1985701701 14.1983505616 4.0609487772 
Al 14.1996470457 12.1707810913 6.0853654097 
Al 12.1707800329 14.1996147659 6.0853606471 
Al 12.1710710804 12.1708795182 8.1138207227 
Al 14.1995623774 14.1995417395 8.1140482689 
Al 14.1995957156 12.1708176045 10.1426178841 
Al 12.1709610115 14.1997851610 10.1425639080 
Al 12.1710626135 12.1708816349 12.1710626135 
Al 14.1982246174 14.1982479012 12.1668773510 
Al 14.1983055815 12.1668487754 14.1983055815 
Al 12.1668773510 14.1982479012 14.1982246174 

