&CONTROL
/
&SYSTEM
   ntyp             = 2
   nat              = 22
   ibrav            = 0
/
&ELECTRONS
/
&IONS
/
&CELL
/

ATOMIC_SPECIES
Mg 24.305 Mg_dummy.UPF
Si 28.085 Si_dummy.UPF

K_POINTS gamma

CELL_PARAMETERS angstrom
14.23147176318435 0.00000000000000 -5.15134434927108
0.00000000000000 4.08062993603626 0.00000000000000
0.00000000000000 0.00000000000000 6.93456518425191

ATOMIC_POSITIONS angstrom
Mg 0.0201082048 0.0000000000 6.8480124305 
Mg 1.1296684587 2.0403147034 2.0991660885 
Mg 2.2477775705 2.0403147034 5.5800657332 
Mg 4.9081667831 0.0000000000 -1.3943337947 
Mg 6.0262282689 0.0000000000 2.0866462849 
Si 0.8412176655 0.0000000000 4.2575354651 
Si 2.7601687507 0.0000000000 0.7108384552 
Si 2.9970940882 0.0000000000 3.2179049212 
Si 4.1587502509 2.0403147034 0.9678746433 
Si 4.3956904053 2.0403147034 3.4749321133 
Si 6.3146123858 2.0403147034 -0.0717670133 
Mg 7.1358456739 2.0403147034 4.2723402559 
Mg 8.2454053987 0.0000000000 -0.4765060861 
Mg 9.3635145104 0.0000000000 3.0043935586 
Mg 12.0239021355 2.0403147034 -3.9700059693 
Mg 13.1419625630 2.0403147034 -0.4890258897 
Si 7.9569535471 2.0403147034 1.6818632904 
Si 9.8759046323 2.0403147034 -1.8648337195 
Si 10.1128299698 2.0403147034 0.6422332757 
Si 11.2744866617 0.0000000000 -1.6077975313 
Si 11.5114262869 0.0000000000 0.8992599387 
Si 13.4303482674 0.0000000000 -2.6474391879 

