&CONTROL
/
&SYSTEM
   ntyp             = 2
   nat              = 255
   ibrav            = 0
/
&ELECTRONS
/
&IONS
/
&CELL
/

ATOMIC_SPECIES
Al 26.9815385 Al_dummy.UPF
Mg 24.305 Mg_dummy.UPF

K_POINTS gamma

CELL_PARAMETERS angstrom
16.22799863997135 0.00000000000000 0.00000000000000
0.00000000000000 16.22799863997135 0.00000000000000
0.00000000000000 0.00000000000000 16.22799863997135

ATOMIC_POSITIONS angstrom
Al 2.0007407149 16.2213172485 2.0007407149 
Al 2.0213833887 1.9726689222 0.0000000000 
Al 0.0000000000 1.9726689222 2.0213833887 
Al 0.0000000000 16.2259247945 4.0545023404 
Al 2.0305476797 2.0275567701 4.0646694222 
Al 2.0281563278 16.2276779586 6.0862856489 
Al 0.0000000000 2.0283034391 6.0877017271 
Al 0.0000000000 16.2275874693 8.1139995846 
Al 2.0286532252 2.0287013804 8.1139995846 
Al 2.0281563278 16.2276779586 10.1417135203 
Al 0.0000000000 2.0283034391 10.1402974421 
Al 0.0000000000 16.2259247945 12.1734968287 
Al 2.0305476797 2.0275567701 12.1633292178 
Al 2.0007407149 16.2213172485 14.2272579251 
Al 0.0000000000 1.9726689222 14.2066152512 
Mg 0.0000000000 4.0514796802 0.0000000000 
Al 2.0524524411 6.1097366661 0.0000000000 
Al 2.0546691644 4.0611387518 2.0546691644 
Al 0.0000000000 6.1097366661 2.0524524411 
Al 0.0000000000 4.0504959398 4.0526322282 
Al 2.0291961611 6.0863094619 4.0619097630 
Al 2.0278716305 4.0570757292 6.0862004514 
Al 0.0000000000 6.0855786681 6.0871032277 
Al 0.0000000000 4.0572567078 8.1139995846 
Al 2.0287257225 6.0859109914 8.1139995846 
Al 2.0278716305 4.0570757292 10.1417987178 
Al 0.0000000000 6.0855786681 10.1408959415 
Al 0.0000000000 4.0504959398 12.1753664118 
Al 2.0291961611 6.0863094619 12.1660888769 
Al 2.0546691644 4.0611387518 14.1733294755 
Al 0.0000000000 6.1097366661 14.1755467280 
Al 0.0000000000 8.1162126037 0.0000000000 
Al 2.0282912680 10.1430317007 0.0000000000 
Al 2.0303476507 8.1189008239 2.0303476507 
Al 0.0000000000 10.1430317007 2.0282912680 
Al 0.0000000000 8.1162956845 4.0594427389 
Al 2.0277292818 10.1431756369 4.0572567078 
Al 2.0286574587 8.1143615418 6.0859940722 
Al 0.0000000000 10.1426379929 6.0856628073 
Al 0.0000000000 8.1143821797 8.1139995846 
Al 2.0286987345 10.1421352745 8.1139995846 
Al 2.0286574587 8.1143615418 10.1420050969 
Al 0.0000000000 10.1426379929 10.1423358327 
Al 0.0000000000 8.1162956845 12.1685559011 
Al 2.0277292818 10.1431756369 12.1707424613 
Al 2.0303476507 8.1189008239 14.1976509893 
Al 0.0000000000 10.1430317007 14.1997073719 
Al 0.0000000000 12.1759622653 0.0000000000 
Al 1.9970131906 14.2305742786 0.0000000000 
Al 2.0291522393 12.1678759084 2.0291522393 
Al 0.0000000000 14.2305742786 1.9970131906 
Al 0.0000000000 12.1773778144 4.0508658347 
Al 2.0286135369 14.1990787094 4.0601724743 
Al 2.0280414964 12.1708514718 6.0849669393 
Al 0.0000000000 14.1994570711 6.0867328036 
Al 0.0000000000 12.1707683910 8.1139995846 
Al 2.0288373789 14.1992633923 8.1139995846 
Al 2.0280414964 12.1708514718 10.1430317007 
Al 0.0000000000 14.1994570711 10.1412663655 
Al 0.0000000000 12.1773778144 12.1771333345 
Al 2.0286135369 14.1990787094 12.1678261657 
Al 2.0291522393 12.1678759084 14.1988464006 
Al 0.0000000000 14.2305742786 14.2309854493 
Al 4.0545023404 16.2259247945 0.0000000000 
Al 6.0877017271 2.0283034391 0.0000000000 
Al 6.0862856489 16.2276779586 2.0281563278 
Al 4.0646694222 2.0275567701 2.0305476797 
Al 4.0508790641 16.2279409597 4.0508790641 
Al 6.0847949567 2.0280044540 4.0573561931 
Al 6.0853812850 0.0001566365 6.0853812850 
Al 4.0573561931 2.0280044540 6.0847949567 
Al 4.0573868854 16.2278308908 8.1139995846 
Al 6.0858533111 2.0286167120 8.1139995846 
Al 6.0853812850 0.0001566365 10.1426173549 
Al 4.0573561931 2.0280044540 10.1432036833 
Al 4.0508790641 16.2279409597 12.1771195759 
Al 6.0847949567 2.0280044540 12.1706424468 
Al 6.0862856489 16.2276779586 14.1998428413 
Al 4.0646694222 2.0275567701 14.1974509603 
Al 4.0526322282 4.0504959398 0.0000000000 
Al 6.0871032277 6.0855786681 0.0000000000 
Al 6.0862004514 4.0570757292 2.0278716305 
Al 4.0619097630 6.0863094619 2.0291961611 
Al 4.0613112636 4.0588744026 4.0613112636 
Al 6.0853426551 6.0852563992 4.0568979257 
Al 6.0855797265 4.0566899590 6.0855797265 
Al 4.0568979257 6.0852563992 6.0853426551 
Al 4.0575556929 4.0571678061 8.1139995846 
Al 6.0853638222 6.0854209733 8.1139995846 
Al 6.0855797265 4.0566899590 10.1424189135 
Al 4.0568979257 6.0852563992 10.1426559849 
Al 4.0613112636 4.0588744026 12.1666873764 
Al 6.0853426551 6.0852563992 12.1711007143 
Al 6.0862004514 4.0570757292 14.2001270095 
Al 4.0619097630 6.0863094619 14.1988030081 
Al 4.0594427389 8.1162956845 0.0000000000 
Al 6.0856628073 10.1426379929 0.0000000000 
Al 6.0859940722 8.1143615418 2.0286574587 
Al 4.0572567078 10.1431756369 2.0277292818 
Al 4.0572619996 8.1140900739 4.0572619996 
Al 6.0853580012 10.1424395514 4.0565364976 
Al 6.0852013648 8.1138440065 6.0852013648 
Al 4.0565364976 10.1424395514 6.0853580012 
Al 4.0579351130 8.1142599398 8.1139995846 
Al 6.0855035250 10.1427851041 8.1139995846 
Al 6.0852013648 8.1138440065 10.1427972752 
Al 4.0565364976 10.1424395514 10.1426406387 
Al 4.0572619996 8.1140900739 12.1707366404 
Al 6.0853580012 10.1424395514 12.1714621423 
Al 6.0859940722 8.1143615418 14.1993411813 
Al 4.0572567078 10.1431756369 14.2002698873 
Al 4.0508658347 12.1773778144 0.0000000000 
Al 6.0867328036 14.1994570711 0.0000000000 
Al 6.0849669393 12.1708514718 2.0280414964 
Al 4.0601724743 14.1990787094 2.0286135369 
Al 4.0590950695 12.1691332334 4.0590950695 
Al 6.0846039237 14.2002942295 4.0568037321 
Al 6.0855426841 12.1713192645 6.0855426841 
Al 4.0568037321 14.2002942295 6.0846039237 
Al 4.0574789623 12.1707572783 8.1139995846 
Al 6.0860025391 14.1991760780 8.1139995846 
Al 6.0855426841 12.1713192645 10.1424564851 
Al 4.0568037321 14.2002942295 10.1433947163 
Al 4.0590950695 12.1691332334 12.1689040997 
Al 6.0846039237 14.2002942295 12.1711949078 
Al 6.0849669393 12.1708514718 14.1999576728 
Al 4.0601724743 14.1990787094 14.1993851030 
Al 8.1139995846 16.2275874693 0.0000000000 
Al 10.1402974421 2.0283034391 0.0000000000 
Al 10.1417135203 16.2276779586 2.0281563278 
Al 8.1139995846 2.0287013804 2.0286532252 
Al 8.1139995846 16.2278308908 4.0573868854 
Al 10.1432036833 2.0280044540 4.0573561931 
Al 10.1426173549 0.0001566365 6.0853812850 
Al 8.1139995846 2.0286167120 6.0858533111 
Al 8.1139995846 16.2277710938 8.1139995846 
Al 10.1421458580 2.0286167120 8.1139995846 
Al 10.1426173549 0.0001566365 10.1426173549 
Al 8.1139995846 2.0286167120 10.1421458580 
Al 8.1139995846 16.2278308908 12.1706117546 
Al 10.1432036833 2.0280044540 12.1706424468 
Al 10.1417135203 16.2276779586 14.1998428413 
Al 8.1139995846 2.0287013804 14.1993454147 
Al 8.1139995846 4.0572567078 0.0000000000 
Al 10.1408959415 6.0855786681 0.0000000000 
Al 10.1417987178 4.0570757292 2.0278716305 
Al 8.1139995846 6.0859109914 2.0287257225 
Al 8.1139995846 4.0571678061 4.0575556929 
Al 10.1426559849 6.0852563992 4.0568979257 
Al 10.1424189135 4.0566899590 6.0855797265 
Al 8.1139995846 6.0854209733 6.0853638222 
Al 8.1139995846 4.0576625867 8.1139995846 
Al 10.1426353470 6.0854209733 8.1139995846 
Al 10.1424189135 4.0566899590 10.1424189135 
Al 8.1139995846 6.0854209733 10.1426353470 
Al 8.1139995846 4.0571678061 12.1704429470 
Al 10.1426559849 6.0852563992 12.1711007143 
Al 10.1417987178 4.0570757292 14.2001270095 
Al 8.1139995846 6.0859109914 14.1992729175 
Al 8.1139995846 8.1143821797 0.0000000000 
Al 10.1423358327 10.1426379929 0.0000000000 
Al 10.1420050969 8.1143615418 2.0286574587 
Al 8.1139995846 10.1421352745 2.0286987345 
Al 8.1139995846 8.1142599398 4.0579351130 
Al 10.1426406387 10.1424395514 4.0565364976 
Al 10.1427972752 8.1138440065 6.0852013648 
Al 8.1139995846 10.1427851041 6.0855035250 
Al 8.1139995846 8.1142721108 8.1139995846 
Al 10.1424956442 10.1427851041 8.1139995846 
Al 10.1427972752 8.1138440065 10.1427972752 
Al 8.1139995846 10.1427851041 10.1424956442 
Al 8.1139995846 8.1142599398 12.1700640561 
Al 10.1426406387 10.1424395514 12.1714621423 
Al 10.1420050969 8.1143615418 14.1993411813 
Al 8.1139995846 10.1421352745 14.1992999055 
Al 8.1139995846 12.1707683910 0.0000000000 
Al 10.1412663655 14.1994570711 0.0000000000 
Al 10.1430317007 12.1708514718 2.0280414964 
Al 8.1139995846 14.1992633923 2.0288373789 
Al 8.1139995846 12.1707572783 4.0574789623 
Al 10.1433947163 14.2002942295 4.0568037321 
Al 10.1424564851 12.1713192645 6.0855426841 
Al 8.1139995846 14.1991760780 6.0860025391 
Al 8.1139995846 12.1702693769 8.1139995846 
Al 10.1419966301 14.1991760780 8.1139995846 
Al 10.1424564851 12.1713192645 10.1424564851 
Al 8.1139995846 14.1991760780 10.1419966301 
Al 8.1139995846 12.1707572783 12.1705196777 
Al 10.1433947163 14.2002942295 12.1711949078 
Al 10.1430317007 12.1708514718 14.1999576728 
Al 8.1139995846 14.1992633923 14.1991612611 
Al 12.1734968287 16.2259247945 0.0000000000 
Al 14.2066152512 1.9726689222 0.0000000000 
Al 14.2272579251 16.2213172485 2.0007407149 
Al 12.1633292178 2.0275567701 2.0305476797 
Al 12.1771195759 16.2279409597 4.0508790641 
Al 14.1974509603 2.0275567701 4.0646694222 
Al 14.1998428413 16.2276779586 6.0862856489 
Al 12.1706424468 2.0280044540 6.0847949567 
Al 12.1706117546 16.2278308908 8.1139995846 
Al 14.1993454147 2.0287013804 8.1139995846 
Al 14.1998428413 16.2276779586 10.1417135203 
Al 12.1706424468 2.0280044540 10.1432036833 
Al 12.1771195759 16.2279409597 12.1771195759 
Al 14.1974509603 2.0275567701 12.1633292178 
Al 14.2272579251 16.2213172485 14.2272579251 
Al 12.1633292178 2.0275567701 14.1974509603 
Al 12.1753664118 4.0504959398 0.0000000000 
Al 14.1755467280 6.1097366661 0.0000000000 
Al 14.1733294755 4.0611387518 2.0546691644 
Al 12.1660888769 6.0863094619 2.0291961611 
Al 12.1666873764 4.0588744026 4.0613112636 
Al 14.1988030081 6.0863094619 4.0619097630 
Al 14.2001270095 4.0570757292 6.0862004514 
Al 12.1711007143 6.0852563992 6.0853426551 
Al 12.1704429470 4.0571678061 8.1139995846 
Al 14.1992729175 6.0859109914 8.1139995846 
Al 14.2001270095 4.0570757292 10.1417987178 
Al 12.1711007143 6.0852563992 10.1426559849 
Al 12.1666873764 4.0588744026 12.1666873764 
Al 14.1988030081 6.0863094619 12.1660888769 
Al 14.1733294755 4.0611387518 14.1733294755 
Al 12.1660888769 6.0863094619 14.1988030081 
Al 12.1685559011 8.1162956845 0.0000000000 
Al 14.1997073719 10.1430317007 0.0000000000 
Al 14.1976509893 8.1189008239 2.0303476507 
Al 12.1707424613 10.1431756369 2.0277292818 
Al 12.1707366404 8.1140900739 4.0572619996 
Al 14.2002698873 10.1431756369 4.0572567078 
Al 14.1993411813 8.1143615418 6.0859940722 
Al 12.1714621423 10.1424395514 6.0853580012 
Al 12.1700640561 8.1142599398 8.1139995846 
Al 14.1992999055 10.1421352745 8.1139995846 
Al 14.1993411813 8.1143615418 10.1420050969 
Al 12.1714621423 10.1424395514 10.1426406387 
Al 12.1707366404 8.1140900739 12.1707366404 
Al 14.2002698873 10.1431756369 12.1707424613 
Al 14.1976509893 8.1189008239 14.1976509893 
Al 12.1707424613 10.1431756369 14.2002698873 
Al 12.1771333345 12.1773778144 0.0000000000 
Al 14.2309854493 14.2305742786 0.0000000000 
Al 14.1988464006 12.1678759084 2.0291522393 
Al 12.1678261657 14.1990787094 2.0286135369 
Al 12.1689040997 12.1691332334 4.0590950695 
Al 14.1993851030 14.1990787094 4.0601724743 
Al 14.1999576728 12.1708514718 6.0849669393 
Al 12.1711949078 14.2002942295 6.0846039237 
Al 12.1705196777 12.1707572783 8.1139995846 
Al 14.1991612611 14.1992633923 8.1139995846 
Al 14.1999576728 12.1708514718 10.1430317007 
Al 12.1711949078 14.2002942295 10.1433947163 
Al 12.1689040997 12.1691332334 12.1689040997 
Al 14.1993851030 14.1990787094 12.1678261657 
Al 14.1988464006 12.1678759084 14.1988464006 
Al 12.1678261657 14.1990787094 14.1993851030 

