&CONTROL
/
&SYSTEM
   ntyp             = 3
   nat              = 22
   ibrav            = 0
/
&ELECTRONS
/
&IONS
/
&CELL
/

ATOMIC_SPECIES
Al 26.9815385 Al_dummy.UPF
Mg 24.305 Mg_dummy.UPF
Si 28.085 Si_dummy.UPF

K_POINTS gamma

CELL_PARAMETERS angstrom
8.11399958457428 0.00000000000000 12.17099911227282
0.00000000000000 4.25074876733391 0.00000000000000
-6.08549982072501 0.00000000000000 2.02849976384927

ATOMIC_POSITIONS angstrom
Al -6.0043399119 0.0000000000 2.0224840773 
Mg -1.4536677894 2.1253741191 1.5680764315 
Mg -4.2375436792 2.1253741191 3.6770550531 
Mg 2.3711589414 0.0000000000 4.4247147170 
Mg -0.4124634725 0.0000000000 6.5338505041 
Si -3.4918880095 0.0000000000 2.0579114332 
Si 0.2492006612 0.0000000000 2.6470094960 
Al -1.9219150068 0.0000000000 3.9625969592 
Al 0.0554519507 2.1253741191 4.1394278743 
Si -2.1156039202 2.1253741191 5.4549777659 
Si 1.6257138841 2.1253741191 6.0438334655 
Al -1.9473403842 2.1253741191 8.1079833689 
Mg 2.6033322674 0.0000000000 7.6535762523 
Mg -0.1805441515 0.0000000000 9.7625548738 
Mg 6.4281589982 2.1253741191 10.5102145377 
Mg 3.6445360552 2.1253741191 12.6193497957 
Si 0.5651120474 2.1253741191 8.1434112539 
Si 4.3062001889 2.1253741191 8.7325093168 
Al 2.1350850501 2.1253741191 10.0480962508 
Al 4.1124514784 0.0000000000 10.2249276950 
Si 1.9413961366 0.0000000000 11.5404770574 
Si 5.6827139410 0.0000000000 12.1293332862 

