&CONTROL
/
&SYSTEM
   ntyp             = 1
   nat              = 4
   ibrav            = 0
/
&ELECTRONS
/
&IONS
/
&CELL
/

ATOMIC_SPECIES
Al 26.9815385 Al_dummy.UPF

K_POINTS gamma

CELL_PARAMETERS angstrom
4.05703339504001 0.00202833624809 0.00000000000000
0.00202833624809 4.05703339504001 0.00000000000000
0.00000000000000 0.00000000000000 4.05703339504001

ATOMIC_POSITIONS angstrom
Al 4.0585473710 4.0585473710 0.0000000000 
Al 2.0290141241 2.0290141241 0.0000000000 
Al 2.0300370236 4.0575250007 2.0284997638 
Al 4.0575250007 2.0300370236 2.0284997638 

