&CONTROL
/
&SYSTEM
   ntyp             = 3
   nat              = 22
   ibrav            = 0
/
&ELECTRONS
/
&IONS
/
&CELL
/

ATOMIC_SPECIES
Mg 24.305 Mg_dummy.UPF
Si 28.085 Si_dummy.UPF
Al 26.9815385 Al_dummy.UPF

K_POINTS gamma

CELL_PARAMETERS angstrom
14.74014494437047 0.00000000000000 -4.22319927257474
0.00000000000000 4.05834945876268 0.00000000000000
0.00000000000000 0.00000000000000 6.83716800193879

ATOMIC_POSITIONS angstrom
Mg 0.0208046020 4.0577684222 6.7529944289 
Mg 1.1171438925 2.0280769513 2.0576743618 
Mg 2.3023272741 2.0280160959 5.5073493760 
Mg 5.1094446269 4.0574826665 -0.9502948472 
Mg 6.2944607885 4.0574212819 2.4996055965 
Si 0.8726068701 4.0573535473 4.1719733311 
Si 2.7575255106 4.0572413617 0.6533327677 
Al 3.2166640006 4.0572328948 3.2203338446 
Al 4.1949369761 2.0282663967 1.3367249177 
Si 4.6541410841 2.0282531673 3.9037222903 
Si 6.5390031026 2.0281399233 0.3852309549 
Mg 7.3908768096 2.0277313985 4.6413947927 
Mg 8.4872161001 4.0574212819 -0.0539247453 
Mg 9.6723994816 4.0574826665 3.3957497397 
Mg 12.4795168345 2.0280160959 -3.0618950127 
Mg 13.6645335252 2.0280764221 0.3880054310 
Si 8.2426796069 2.0281393942 2.0603742240 
Si 10.1275982474 2.0282531673 -1.4582668686 
Al 10.5867367374 2.0282658675 1.1087342083 
Al 11.5650091837 4.0572328948 -0.7748752478 
Si 12.0242132917 4.0572413617 1.7921226540 
Si 13.9090758394 4.0573535473 -1.7263692105 

