&CONTROL
/
&SYSTEM
   ntyp             = 2
   nat              = 256
   ibrav            = 0
/
&ELECTRONS
/
&IONS
/
&CELL
/

ATOMIC_SPECIES
Si 28.085 Si_dummy.UPF
Al 26.9815385 Al_dummy.UPF

K_POINTS gamma

CELL_PARAMETERS angstrom
16.22799863997135 0.00000000000000 0.00000000000000
0.00000000000000 16.22799863997135 0.00000000000000
0.00000000000000 0.00000000000000 16.22799863997135

ATOMIC_POSITIONS angstrom
Si 0.0000000000 0.0000000000 0.0000000000 
Al 2.0168144727 2.0168144727 0.0000000000 
Al 2.0168144727 0.0000000000 2.0168144727 
Al 0.0000000000 2.0168144727 2.0168144727 
Al 0.0000000000 0.0000000000 4.0519628190 
Al 2.0283611194 2.0283611194 4.0558062331 
Al 2.0283785823 0.0000000000 6.0848536954 
Al 0.0000000000 2.0283785823 6.0848536954 
Al 0.0000000000 0.0000000000 8.1139995846 
Al 2.0285759654 2.0285759654 8.1139995846 
Al 2.0283785823 0.0000000000 10.1431449446 
Al 0.0000000000 2.0283785823 10.1431449446 
Al 0.0000000000 0.0000000000 12.1760358210 
Al 2.0283611194 2.0283611194 12.1721924069 
Al 2.0168144727 0.0000000000 14.2111846965 
Al 0.0000000000 2.0168144727 14.2111846965 
Al 0.0000000000 4.0519628190 0.0000000000 
Al 2.0283785823 6.0848536954 0.0000000000 
Al 2.0283611194 4.0558062331 2.0283611194 
Al 0.0000000000 6.0848536954 2.0283785823 
Al 0.0000000000 4.0551823332 4.0551823332 
Al 2.0283515942 6.0854881788 4.0567979112 
Al 2.0283515942 4.0567979112 6.0854881788 
Al 0.0000000000 6.0857443006 6.0857443006 
Al 0.0000000000 4.0566359830 8.1139995846 
Al 2.0285272811 6.0856961455 8.1139995846 
Al 2.0283515942 4.0567979112 10.1425104611 
Al 0.0000000000 6.0857443006 10.1422548686 
Al 0.0000000000 4.0551823332 12.1728163068 
Al 2.0283515942 6.0854881788 12.1712012580 
Al 2.0283611194 4.0558062331 14.1996375206 
Al 0.0000000000 6.0848536954 14.1996200577 
Al 0.0000000000 8.1139995846 0.0000000000 
Al 2.0283785823 10.1431449446 0.0000000000 
Al 2.0285759654 8.1139995846 2.0285759654 
Al 0.0000000000 10.1431449446 2.0283785823 
Al 0.0000000000 8.1139995846 4.0566359830 
Al 2.0283515942 10.1425104611 4.0567979112 
Al 2.0285272811 8.1139995846 6.0856961455 
Al 0.0000000000 10.1422548686 6.0857443006 
Al 0.0000000000 8.1139995846 8.1139995846 
Al 2.0285272811 10.1423024945 8.1139995846 
Al 2.0285272811 8.1139995846 10.1423024945 
Al 0.0000000000 10.1422548686 10.1422548686 
Al 0.0000000000 8.1139995846 12.1713631862 
Al 2.0283515942 10.1425104611 12.1712012580 
Al 2.0285759654 8.1139995846 14.1994226746 
Al 0.0000000000 10.1431449446 14.1996200577 
Al 0.0000000000 12.1760358210 0.0000000000 
Al 2.0168144727 14.2111846965 0.0000000000 
Al 2.0283611194 12.1721924069 2.0283611194 
Al 0.0000000000 14.2111846965 2.0168144727 
Al 0.0000000000 12.1728163068 4.0551823332 
Al 2.0283611194 14.1996375206 4.0558062331 
Al 2.0283515942 12.1712012580 6.0854881788 
Al 0.0000000000 14.1996200577 6.0848536954 
Al 0.0000000000 12.1713631862 8.1139995846 
Al 2.0285759654 14.1994226746 8.1139995846 
Al 2.0283515942 12.1712012580 10.1425104611 
Al 0.0000000000 14.1996200577 10.1431449446 
Al 0.0000000000 12.1728163068 12.1728163068 
Al 2.0283611194 14.1996375206 12.1721924069 
Al 2.0283611194 12.1721924069 14.1996375206 
Al 0.0000000000 14.2111846965 14.2111846965 
Al 4.0519628190 0.0000000000 0.0000000000 
Al 6.0848536954 2.0283785823 0.0000000000 
Al 6.0848536954 0.0000000000 2.0283785823 
Al 4.0558062331 2.0283611194 2.0283611194 
Al 4.0551823332 0.0000000000 4.0551823332 
Al 6.0854881788 2.0283515942 4.0567979112 
Al 6.0857443006 0.0000000000 6.0857443006 
Al 4.0567979112 2.0283515942 6.0854881788 
Al 4.0566359830 0.0000000000 8.1139995846 
Al 6.0856961455 2.0285272811 8.1139995846 
Al 6.0857443006 0.0000000000 10.1422548686 
Al 4.0567979112 2.0283515942 10.1425104611 
Al 4.0551823332 0.0000000000 12.1728163068 
Al 6.0854881788 2.0283515942 12.1712012580 
Al 6.0848536954 0.0000000000 14.1996200577 
Al 4.0558062331 2.0283611194 14.1996375206 
Al 4.0551823332 4.0551823332 0.0000000000 
Al 6.0857443006 6.0857443006 0.0000000000 
Al 6.0854881788 4.0567979112 2.0283515942 
Al 4.0567979112 6.0854881788 2.0283515942 
Al 4.0576128441 4.0576128441 4.0576128441 
Al 6.0855601469 6.0855601469 4.0570106404 
Al 6.0855601469 4.0570106404 6.0855601469 
Al 4.0570106404 6.0855601469 6.0855601469 
Al 4.0569905317 4.0569905317 8.1139995846 
Al 6.0852992626 6.0852992626 8.1139995846 
Al 6.0855601469 4.0570106404 10.1424384930 
Al 4.0570106404 6.0855601469 10.1424384930 
Al 4.0576128441 4.0576128441 12.1703857959 
Al 6.0855601469 6.0855601469 12.1709879996 
Al 6.0854881788 4.0567979112 14.1996475749 
Al 4.0567979112 6.0854881788 14.1996475749 
Al 4.0566359830 8.1139995846 0.0000000000 
Al 6.0857443006 10.1422548686 0.0000000000 
Al 6.0856961455 8.1139995846 2.0285272811 
Al 4.0567979112 10.1425104611 2.0283515942 
Al 4.0569905317 8.1139995846 4.0569905317 
Al 6.0855601469 10.1424384930 4.0570106404 
Al 6.0852992626 8.1139995846 6.0852992626 
Al 4.0570106404 10.1424384930 6.0855601469 
Al 4.0570535038 8.1139995846 8.1139995846 
Al 6.0852992626 10.1426993774 8.1139995846 
Al 6.0852992626 8.1139995846 10.1426993774 
Al 4.0570106404 10.1424384930 10.1424384930 
Al 4.0569905317 8.1139995846 12.1710081083 
Al 6.0855601469 10.1424384930 12.1709879996 
Al 6.0856961455 8.1139995846 14.1994718881 
Al 4.0567979112 10.1425104611 14.1996475749 
Al 4.0551823332 12.1728163068 0.0000000000 
Al 6.0848536954 14.1996200577 0.0000000000 
Al 6.0854881788 12.1712012580 2.0283515942 
Al 4.0558062331 14.1996375206 2.0283611194 
Al 4.0576128441 12.1703857959 4.0576128441 
Al 6.0854881788 14.1996475749 4.0567979112 
Al 6.0855601469 12.1709879996 6.0855601469 
Al 4.0567979112 14.1996475749 6.0854881788 
Al 4.0569905317 12.1710081083 8.1139995846 
Al 6.0856961455 14.1994718881 8.1139995846 
Al 6.0855601469 12.1709879996 10.1424384930 
Al 4.0567979112 14.1996475749 10.1425104611 
Al 4.0576128441 12.1703857959 12.1703857959 
Al 6.0854881788 14.1996475749 12.1712012580 
Al 6.0854881788 12.1712012580 14.1996475749 
Al 4.0558062331 14.1996375206 14.1996375206 
Al 8.1139995846 0.0000000000 0.0000000000 
Al 10.1431449446 2.0283785823 0.0000000000 
Al 10.1431449446 0.0000000000 2.0283785823 
Al 8.1139995846 2.0285759654 2.0285759654 
Al 8.1139995846 0.0000000000 4.0566359830 
Al 10.1425104611 2.0283515942 4.0567979112 
Al 10.1422548686 0.0000000000 6.0857443006 
Al 8.1139995846 2.0285272811 6.0856961455 
Al 8.1139995846 0.0000000000 8.1139995846 
Al 10.1423024945 2.0285272811 8.1139995846 
Al 10.1422548686 0.0000000000 10.1422548686 
Al 8.1139995846 2.0285272811 10.1423024945 
Al 8.1139995846 0.0000000000 12.1713631862 
Al 10.1425104611 2.0283515942 12.1712012580 
Al 10.1431449446 0.0000000000 14.1996200577 
Al 8.1139995846 2.0285759654 14.1994226746 
Al 8.1139995846 4.0566359830 0.0000000000 
Al 10.1422548686 6.0857443006 0.0000000000 
Al 10.1425104611 4.0567979112 2.0283515942 
Al 8.1139995846 6.0856961455 2.0285272811 
Al 8.1139995846 4.0569905317 4.0569905317 
Al 10.1424384930 6.0855601469 4.0570106404 
Al 10.1424384930 4.0570106404 6.0855601469 
Al 8.1139995846 6.0852992626 6.0852992626 
Al 8.1139995846 4.0570535038 8.1139995846 
Al 10.1426993774 6.0852992626 8.1139995846 
Al 10.1424384930 4.0570106404 10.1424384930 
Al 8.1139995846 6.0852992626 10.1426993774 
Al 8.1139995846 4.0569905317 12.1710081083 
Al 10.1424384930 6.0855601469 12.1709879996 
Al 10.1425104611 4.0567979112 14.1996475749 
Al 8.1139995846 6.0856961455 14.1994718881 
Al 8.1139995846 8.1139995846 0.0000000000 
Al 10.1422548686 10.1422548686 0.0000000000 
Al 10.1423024945 8.1139995846 2.0285272811 
Al 8.1139995846 10.1423024945 2.0285272811 
Al 8.1139995846 8.1139995846 4.0570535038 
Al 10.1424384930 10.1424384930 4.0570106404 
Al 10.1426993774 8.1139995846 6.0852992626 
Al 8.1139995846 10.1426993774 6.0852992626 
Al 8.1139995846 8.1139995846 8.1139995846 
Al 10.1426993774 10.1426993774 8.1139995846 
Al 10.1426993774 8.1139995846 10.1426993774 
Al 8.1139995846 10.1426993774 10.1426993774 
Al 8.1139995846 8.1139995846 12.1709451362 
Al 10.1424384930 10.1424384930 12.1709879996 
Al 10.1423024945 8.1139995846 14.1994718881 
Al 8.1139995846 10.1423024945 14.1994718881 
Al 8.1139995846 12.1713631862 0.0000000000 
Al 10.1431449446 14.1996200577 0.0000000000 
Al 10.1425104611 12.1712012580 2.0283515942 
Al 8.1139995846 14.1994226746 2.0285759654 
Al 8.1139995846 12.1710081083 4.0569905317 
Al 10.1425104611 14.1996475749 4.0567979112 
Al 10.1424384930 12.1709879996 6.0855601469 
Al 8.1139995846 14.1994718881 6.0856961455 
Al 8.1139995846 12.1709451362 8.1139995846 
Al 10.1423024945 14.1994718881 8.1139995846 
Al 10.1424384930 12.1709879996 10.1424384930 
Al 8.1139995846 14.1994718881 10.1423024945 
Al 8.1139995846 12.1710081083 12.1710081083 
Al 10.1425104611 14.1996475749 12.1712012580 
Al 10.1425104611 12.1712012580 14.1996475749 
Al 8.1139995846 14.1994226746 14.1994226746 
Al 12.1760358210 0.0000000000 0.0000000000 
Al 14.2111846965 2.0168144727 0.0000000000 
Al 14.2111846965 0.0000000000 2.0168144727 
Al 12.1721924069 2.0283611194 2.0283611194 
Al 12.1728163068 0.0000000000 4.0551823332 
Al 14.1996375206 2.0283611194 4.0558062331 
Al 14.1996200577 0.0000000000 6.0848536954 
Al 12.1712012580 2.0283515942 6.0854881788 
Al 12.1713631862 0.0000000000 8.1139995846 
Al 14.1994226746 2.0285759654 8.1139995846 
Al 14.1996200577 0.0000000000 10.1431449446 
Al 12.1712012580 2.0283515942 10.1425104611 
Al 12.1728163068 0.0000000000 12.1728163068 
Al 14.1996375206 2.0283611194 12.1721924069 
Al 14.2111846965 0.0000000000 14.2111846965 
Al 12.1721924069 2.0283611194 14.1996375206 
Al 12.1728163068 4.0551823332 0.0000000000 
Al 14.1996200577 6.0848536954 0.0000000000 
Al 14.1996375206 4.0558062331 2.0283611194 
Al 12.1712012580 6.0854881788 2.0283515942 
Al 12.1703857959 4.0576128441 4.0576128441 
Al 14.1996475749 6.0854881788 4.0567979112 
Al 14.1996475749 4.0567979112 6.0854881788 
Al 12.1709879996 6.0855601469 6.0855601469 
Al 12.1710081083 4.0569905317 8.1139995846 
Al 14.1994718881 6.0856961455 8.1139995846 
Al 14.1996475749 4.0567979112 10.1425104611 
Al 12.1709879996 6.0855601469 10.1424384930 
Al 12.1703857959 4.0576128441 12.1703857959 
Al 14.1996475749 6.0854881788 12.1712012580 
Al 14.1996375206 4.0558062331 14.1996375206 
Al 12.1712012580 6.0854881788 14.1996475749 
Al 12.1713631862 8.1139995846 0.0000000000 
Al 14.1996200577 10.1431449446 0.0000000000 
Al 14.1994226746 8.1139995846 2.0285759654 
Al 12.1712012580 10.1425104611 2.0283515942 
Al 12.1710081083 8.1139995846 4.0569905317 
Al 14.1996475749 10.1425104611 4.0567979112 
Al 14.1994718881 8.1139995846 6.0856961455 
Al 12.1709879996 10.1424384930 6.0855601469 
Al 12.1709451362 8.1139995846 8.1139995846 
Al 14.1994718881 10.1423024945 8.1139995846 
Al 14.1994718881 8.1139995846 10.1423024945 
Al 12.1709879996 10.1424384930 10.1424384930 
Al 12.1710081083 8.1139995846 12.1710081083 
Al 14.1996475749 10.1425104611 12.1712012580 
Al 14.1994226746 8.1139995846 14.1994226746 
Al 12.1712012580 10.1425104611 14.1996475749 
Al 12.1728163068 12.1728163068 0.0000000000 
Al 14.2111846965 14.2111846965 0.0000000000 
Al 14.1996375206 12.1721924069 2.0283611194 
Al 12.1721924069 14.1996375206 2.0283611194 
Al 12.1703857959 12.1703857959 4.0576128441 
Al 14.1996375206 14.1996375206 4.0558062331 
Al 14.1996475749 12.1712012580 6.0854881788 
Al 12.1712012580 14.1996475749 6.0854881788 
Al 12.1710081083 12.1710081083 8.1139995846 
Al 14.1994226746 14.1994226746 8.1139995846 
Al 14.1996475749 12.1712012580 10.1425104611 
Al 12.1712012580 14.1996475749 10.1425104611 
Al 12.1703857959 12.1703857959 12.1703857959 
Al 14.1996375206 14.1996375206 12.1721924069 
Al 14.1996375206 12.1721924069 14.1996375206 
Al 12.1721924069 14.1996375206 14.1996375206 

