&CONTROL
/
&SYSTEM
   ntyp             = 1
   nat              = 2
   ibrav            = 0
/
&ELECTRONS
/
&IONS
/
&CELL
/

ATOMIC_SPECIES
Mg 24.305 Mg_dummy.UPF

K_POINTS gamma

CELL_PARAMETERS angstrom
3.18435984861823 0.00000000000000 0.00000000000000
-1.59217939513191 2.75773665228445 0.00000000000000
-0.00000000000000 -0.00000000000000 5.16604753806660

ATOMIC_POSITIONS angstrom
Mg 0.3333329584 0.6666669751 0.2499997188 
Mg 0.6666669751 0.3333329584 0.7499996855 

