&CONTROL
/
&SYSTEM
   ntyp             = 1
   nat              = 4
   ibrav            = 0
/
&ELECTRONS
/
&IONS
/
&CELL
/

ATOMIC_SPECIES
Al 26.9815385 Al_dummy.UPF

K_POINTS gamma

CELL_PARAMETERS angstrom
4.06109059671340 0.00000000000000 0.00000000000000
0.00000000000000 4.05703339504001 0.00000000000000
0.00000000000000 0.00000000000000 4.05703339504001

ATOMIC_POSITIONS angstrom
Al 4.0600740473 0.0000000000 0.0000000000 
Al 2.0295157841 2.0284997638 0.0000000000 
Al 2.0295157841 0.0000000000 2.0284997638 
Al 4.0600751056 2.0284997638 2.0284997638 

