&CONTROL
/
&SYSTEM
   ntyp             = 3
   nat              = 196
   ibrav            = 0
/
&ELECTRONS
/
&IONS
/
&CELL
/

ATOMIC_SPECIES
Al 26.9815385 Al_dummy.UPF
Si 28.085 Si_dummy.UPF
Mg 24.305 Mg_dummy.UPF

K_POINTS gamma

CELL_PARAMETERS angstrom
28.39899775224416 0.00000000000000 0.00000000000000
0.00000000000000 4.05699952769853 0.00000000000000
0.00000000000000 0.00000000000000 28.39899775224416

ATOMIC_POSITIONS angstrom
Al 1.9161385084 2.0245648021 28.2593256609 
Al 28.3224771401 4.0530248777 28.2854283852 
Al 1.9383343173 4.0533196294 1.9411971660 
Al 28.2876361125 2.0246007862 1.8905136311 
Al 1.8322967295 2.0249172341 3.8868976301 
Al 28.2697366934 4.0533471466 3.9390115309 
Al 1.6756205869 4.0538366355 6.0057639278 
Al 28.1765327113 2.0249929065 6.0041859214 
Al 1.8356432462 2.0252188651 8.1311634474 
Al 28.2750094151 4.0536090893 8.0738270966 
Al 1.9096158701 4.0538001223 10.0847221930 
Al 28.3006295297 2.0250087818 10.1440217913 
Al 1.8671716244 2.0251140881 12.1991920865 
Al 28.3084285435 4.0535027247 12.1761982784 
Al 1.9013951021 4.0534667406 14.2371948147 
Al 28.3159624394 2.0247468391 14.2194779617 
Al 1.9287821395 2.0246727543 16.2580638432 
Al 28.3259543635 4.0531598179 16.2423769140 
Al 1.9466069446 4.0531047834 18.2600989256 
Al 28.3325357405 2.0244028739 18.2532418473 
Al 1.9563416886 2.0243954654 20.2581207280 
Al 28.3378677301 4.0528846457 20.2604226488 
Al 1.9587065815 4.0529232756 22.2632335050 
Al 28.3393552472 2.0242626419 22.2614406526 
Al 1.9554182744 2.0243658315 24.2636302547 
Al 28.3384249537 4.0528513075 24.2663661009 
Al 1.9517722434 4.0530359904 26.2753312880 
Al 28.3276980024 2.0243578938 26.2699008715 
Al 5.9882809711 2.0251580098 28.1952798723 
Al 3.9729873537 4.0533434424 28.2905317702 
Si 6.0429201057 4.0539832176 1.6557139986 
Al 3.8375148128 2.0248674915 1.8495611360 
Si 5.9000136832 2.0259110289 3.2733230045 
Mg 4.1510972901 4.0540557149 4.1642870321 
Mg 5.8809717705 2.0262359437 6.0425009973 
Si 3.2827852223 2.0254405904 6.0101423401 
Si 6.0355984098 2.0264084555 8.8165680583 
Mg 4.1710901343 4.0542515104 7.8476636361 
Si 5.8053370010 4.0547505246 10.3190683207 
Al 3.8246140016 2.0254670493 10.1696678356 
Al 5.7393618322 2.0259020329 12.2625150191 
Al 3.8099923061 4.0540488356 12.1808814967 
Al 5.9158371402 4.0540102056 14.2963002049 
Al 3.9043059728 2.0251400177 14.2570103845 
Al 6.0113287554 2.0251860562 16.2223613151 
Al 3.9420140824 4.0534508653 16.2642234659 
Al 5.9831431896 4.0534519237 18.2778194828 
Al 3.9712929283 2.0246976256 18.2600031445 
Al 6.0026772371 2.0247029174 20.2622282015 
Al 3.9720179011 4.0531127211 20.2659493756 
Al 6.0060078785 4.0532301984 22.2605442264 
Al 3.9803873679 2.0244616126 22.2628805438 
Al 6.0028402237 2.0247103258 24.2483539670 
Al 3.9806376687 4.0531254213 24.2675096529 
Al 6.0085130034 4.0534588030 26.2409670491 
Al 3.9627938131 2.0246383577 26.2608598788 
Al 10.0353092127 2.0252738996 28.2069937390 
Al 8.0843005720 4.0538472191 28.2931384972 
Mg 10.3575268037 4.0545351494 2.1226271602 
Al 8.0288809011 2.0255839974 1.7962364777 
Si 9.5672085774 2.0263380749 3.8392298761 
Mg 7.5750024325 4.0547611081 4.2095115748 
Mg 10.5169022793 4.0553130399 5.6317764011 
Si 8.4859100908 2.0266423518 5.9588957606 
Si 9.9750893753 2.0271302532 7.8115726920 
Mg 7.6663050809 4.0551696329 7.7228402574 
Si 10.0305185714 4.0556083208 9.2724394082 
Mg 8.3256418932 2.0267661793 10.3861441781 
Mg 10.0338142870 4.0552431885 12.1307657690 
Si 7.3942566645 4.0548002672 12.1708922185 
Si 10.0782746979 4.0545928297 14.8638491134 
Mg 8.2926349939 2.0260406774 14.0018866428 
Si 10.0820498481 2.0257591551 16.4824090508 
Al 7.9522914959 4.0538488066 16.2887243708 
Al 10.0776576773 4.0539408834 18.3268281718 
Al 8.0433650105 2.0251008586 18.2482829276 
Al 10.0821752631 2.0250590536 20.2879657935 
Al 8.0347881063 4.0534693865 20.2678978061 
Al 10.0838548716 4.0535053706 22.2681167523 
Al 8.0414843147 2.0247447224 22.2552196453 
Al 10.0821006491 2.0249278177 24.2490588311 
Al 8.0419251193 4.0534090603 24.2555793526 
Al 10.1036281072 4.0536138519 26.2542636849 
Al 8.0372270840 2.0250003150 26.2329643022 
Al 14.2788156607 2.0250849833 28.2314835312 
Si 12.1420118430 4.0538488066 28.0397790323 
Mg 13.9469326479 4.0543631668 2.1216688202 
Si 12.1579236726 2.0258888035 1.2599725259 
Si 14.8544810892 2.0262285353 3.9514826503 
Mg 12.2157129990 2.0266090137 3.9953424450 
Mg 13.9281891911 4.0552209631 5.7373340252 
Si 12.2252371305 2.0271006193 6.8549996864 
Mg 14.5887917953 2.0267899923 8.4043067315 
Si 12.2807599909 4.0556284295 8.3164622562 
Si 13.7679797322 4.0553252110 10.1702515181 
Mg 11.7361916612 2.0269360452 10.4960653974 
Mg 14.6756964519 2.0265185244 11.9199743773 
Si 12.6818869001 4.0550558598 12.2896311177 
Al 14.2144655952 4.0545293285 14.3325186807 
Mg 11.8824467170 2.0263121453 14.0051082737 
Al 14.1478040836 2.0256797785 16.2347244823 
Al 12.1977966462 4.0541827174 16.3173327491 
Al 14.1886877857 4.0538615068 18.2924745165 
Al 12.1177416594 2.0253374008 18.2692478704 
Al 14.1776523242 2.0249828521 20.2680142251 
Al 12.1358580413 4.0536413691 20.2728837138 
Al 14.1757631615 4.0534328733 22.2654967959 
Al 12.1305821445 2.0249156466 22.2512751584 
Al 14.1830023058 2.0248246281 24.2529498711 
Al 12.1342472258 4.0535328878 24.2332713582 
Al 14.1779470759 4.0534852618 26.2729367611 
Al 12.1438639633 2.0251273175 26.1947058482 
Al 18.2897264992 2.0247828231 28.2525638345 
Al 16.2176077163 4.0536053851 28.2954531183 
Al 18.3345425172 4.0536212604 1.8598652746 
Al 16.3213957717 2.0253363425 1.8216957224 
Al 18.4347681517 2.0254797495 3.9374885589 
Al 16.5061876287 4.0545774836 3.8581506073 
Al 18.4245365103 4.0541181578 5.9492864317 
Si 16.4446300314 2.0263692964 5.8034039166 
Mg 18.0818275902 2.0259110289 8.2732136611 
Si 16.2158900070 4.0550410428 7.3075298114 
Si 18.9682221725 4.0541631378 10.1115927534 
Mg 16.3707891726 4.0549891835 10.0854005982 
Mg 18.0995650811 2.0258411775 11.9616862417 
Si 16.3487838675 4.0547066028 12.8559391056 
Al 18.4091654999 4.0537609632 14.2778626125 
Si 16.1972333353 2.0259750594 14.4758193402 
Al 18.2645805274 2.0251426636 16.2363977407 
Al 16.2467637930 4.0541006949 16.3321126686 
Al 18.2686192078 4.0534799701 18.2647207593 
Al 16.2188856792 2.0252151609 18.2842876159 
Al 18.2449078354 2.0246822795 20.2564374153 
Al 16.2200689195 4.0535037830 20.2759973925 
Al 18.2432790279 4.0531868059 22.2594811094 
Al 16.2143257592 2.0247267303 22.2615179125 
Al 18.2505276974 2.0245457517 24.2548903639 
Al 16.2163191698 4.0532804703 24.2589438613 
Al 18.2543573528 4.0531735765 26.2583616332 
Al 16.2405703030 2.0247637727 26.2402150883 
Al 22.3091449198 2.0244764295 28.2740865300 
Al 20.3051021391 4.0531952727 28.2582143888 
Al 22.3228606639 4.0532778244 1.8975781469 
Al 20.3382328659 2.0248399743 1.8798353642 
Al 22.3349195542 2.0248913045 3.9398756773 
Al 20.3767188660 4.0537022245 3.9185757654 
Al 22.3455020400 4.0536059142 5.9718775360 
Al 20.3384889876 2.0253448093 6.0324767934 
Al 22.3724265765 2.0251072088 8.0417314405 
Al 20.4136337391 4.0539022535 7.9887459847 
Al 22.4713536101 4.0537493213 10.1127458306 
Al 20.5737961012 2.0253284048 10.1123066135 
Al 22.3755968772 2.0250124860 12.1802808805 
Al 20.4161325139 4.0537604340 12.2354904681 
Al 22.3540964071 4.0533699012 14.2322226656 
Al 20.3066139984 2.0250527035 14.1834531647 
Al 22.3146658256 2.0246669333 16.2372735289 
Al 20.3231497278 4.0534154105 16.2666206387 
Al 22.3065725894 4.0531037251 18.2544393753 
Al 20.2819051269 2.0246447079 18.2494704013 
Al 22.2917302270 2.0243949362 20.2572168933 
Al 20.2745188714 4.0530994917 20.2600363495 
Al 22.2886276610 4.0528687704 22.2608172819 
Al 20.2676480345 2.0244097532 22.2592218126 
Al 22.2900104010 2.0242642295 24.2602329370 
Al 20.2702113689 4.0530005355 24.2618109435 
Al 22.2979417091 4.0529201006 26.2640291212 
Al 20.2815791537 2.0244478539 26.2572609446 
Al 26.3101749615 2.0244224534 28.2825618322 
Al 24.3094114919 4.0530063565 28.2852743946 
Al 26.2991193912 4.0531069001 1.9027630252 
Al 24.3051748992 2.0245441642 1.9078066132 
Al 26.2799107876 2.0246992131 3.9341716762 
Al 24.3118001978 4.0533349755 3.9393359166 
Al 26.2623579795 4.0534752075 5.9945427251 
Al 24.3101507525 2.0248775458 5.9891509385 
Al 26.3004349257 2.0249542765 8.0718373903 
Al 24.3470730340 4.0535455880 8.0439180007 
Al 26.3365867252 4.0534990205 10.1259747317 
Al 24.3846620788 2.0249727977 10.1216799294 
Al 26.3323538367 2.0248267448 12.1772772707 
Al 24.3649899160 4.0534392234 12.1836459184 
Al 26.3351320171 4.0532910538 14.2100665450 
Al 24.3414251256 2.0246907463 14.2173326773 
Al 26.3264752071 2.0244896589 16.2333422714 
Al 24.3269436621 4.0531021375 16.2383969722 
Al 26.3219279873 4.0529396801 18.2487486036 
Al 24.3095205024 2.0243996988 18.2457471104 
Al 26.3210394988 2.0242716379 20.2586784807 
Al 24.3081599878 4.0529137505 20.2577587708 
Al 26.3228016589 4.0527729893 22.2634382966 
Al 24.3064174073 2.0242229536 22.2591154479 
Al 26.3222275016 2.0242054908 24.2651976776 
Al 24.3087669541 4.0527491763 24.2627454704 
Al 26.3237917494 4.0528708871 26.2761303456 
Al 24.3106894549 2.0242721671 26.2707782473 

