&CONTROL
/
&SYSTEM
   ntyp             = 3
   nat              = 22
   ibrav            = 0
/
&ELECTRONS
/
&IONS
/
&CELL
/

ATOMIC_SPECIES
Mg 24.305 Mg_dummy.UPF
Si 28.085 Si_dummy.UPF
Al 26.9815385 Al_dummy.UPF

K_POINTS gamma

CELL_PARAMETERS angstrom
14.74014494437047 0.00405455578734 -4.22319927257474
0.01474023120026 4.05429490297534 -0.00422336331751
0.00000000000000 0.00000000000000 6.83716800193879

ATOMIC_POSITIONS angstrom
Mg 0.0317120027 4.0534503361 6.7496600833 
Mg 1.1208539539 2.0253347550 2.0564180951 
Mg 2.3062267809 2.0261131746 5.5064174950 
Mg 5.1201673447 4.0553310320 -0.9535037778 
Mg 6.2908052323 0.0018145487 2.5007089310 
Si 0.8836640279 4.0532555989 4.1685744258 
Si 2.7534169787 0.0022844580 0.6542101435 
Al 3.2274078855 4.0547791001 3.2171339100 
Al 4.1989872985 2.0266645773 1.3358009743 
Si 4.6582628454 2.0248606122 3.9029295828 
Si 6.5427036389 2.0281811992 0.3843345287 
Mg 7.3946715394 2.0280002206 4.6404237525 
Mg 8.4984198400 4.0541589044 -0.0571262674 
Mg 9.6835757043 4.0550600932 3.3927535384 
Mg 12.4829628365 2.0304386691 -3.0630396230 
Mg 13.6681245218 2.0313398579 0.3868301285 
Si 8.2462102772 2.0277642075 2.0592883523 
Si 10.1310087945 2.0314361682 -1.4593866076 
Al 10.5900081109 2.0296099776 1.1077896270 
Al 11.5765304299 4.0558893139 -0.7780550736 
Si 12.0355546177 4.0540583608 1.7891031689 
Si 13.9203023339 4.0577266172 -1.7295791995 

