&CONTROL
/
&SYSTEM
   ntyp             = 1
   nat              = 254
   ibrav            = 0
/
&ELECTRONS
/
&IONS
/
&CELL
/

ATOMIC_SPECIES
Al 26.9815385 Al_dummy.UPF

K_POINTS gamma

CELL_PARAMETERS angstrom
16.22799863997135 0.00000000000000 0.00000000000000
0.00000000000000 16.22799863997135 0.00000000000000
0.00000000000000 0.00000000000000 16.22799863997135

ATOMIC_POSITIONS angstrom
Al 1.9977588013 0.0307399042 1.9660695533 
Al 0.0307399042 1.9977588013 1.9660695533 
Al 0.0010885175 0.0010885175 4.0528777664 
Al 2.0274086004 2.0274086004 4.0528767081 
Al 2.0276059835 0.0008916636 6.0870968775 
Al 0.0008916636 2.0276059835 6.0870968775 
Al 16.2275668314 16.2275668314 8.1139995846 
Al 2.0289294557 2.0289294557 8.1139995846 
Al 2.0276059835 0.0008916636 10.1409017624 
Al 0.0008916636 2.0276059835 10.1409017624 
Al 0.0010885175 0.0010885175 12.1751208736 
Al 2.0274086004 2.0274086004 12.1751219319 
Al 1.9977588013 0.0307399042 14.2619296159 
Al 0.0307399042 1.9977588013 14.2619296159 
Al 0.0368238546 4.0093508241 0.0000000000 
Al 2.0274482887 6.0791438732 0.0000000000 
Al 2.0235239105 4.0132561519 1.9917796280 
Al 0.0025596302 6.0810542030 2.0255585969 
Al 0.0032396229 4.0433393472 4.0425937365 
Al 2.0273694413 6.0691344863 4.0419798909 
Al 2.0273673246 4.0565359685 6.0853410676 
Al 0.0013853859 6.0847309262 6.0831322819 
Al 16.2272472083 4.0581536632 8.1139995846 
Al 2.0291988069 6.0866433727 8.1139995846 
Al 2.0273673246 4.0565359685 10.1426581016 
Al 0.0013853859 6.0847309262 10.1448668873 
Al 0.0032396229 4.0433393472 12.1854049035 
Al 2.0273694413 6.0691344863 12.1860187490 
Al 2.0235239105 4.0132561519 14.2362190119 
Al 0.0025596302 6.0810542030 14.2024405722 
Al 0.0006233708 8.1133576926 0.0000000000 
Al 2.0278716305 10.1431422987 0.0000000000 
Al 2.0289855485 8.1144049343 2.0280753637 
Al 16.2275086219 10.1420950570 2.0280748345 
Al 0.0015330264 8.1124469786 4.0570804918 
Al 2.0269635624 10.1440535419 4.0570815502 
Al 2.0287691150 8.1118220204 6.0835741449 
Al 16.2277266429 10.1446795585 6.0835736157 
Al 0.0000788474 8.1142969822 8.1139995846 
Al 2.0284193289 10.1422040675 8.1139995846 
Al 2.0287691150 8.1118220204 10.1444244951 
Al 16.2277266429 10.1446795585 10.1444250243 
Al 0.0015330264 8.1124469786 12.1709181482 
Al 2.0269635624 10.1440535419 12.1709170898 
Al 2.0289855485 8.1144049343 14.1999238054 
Al 16.2275086219 10.1420950570 14.1999238054 
Al 0.0010467125 12.1773545306 0.0000000000 
Al 1.9916737926 14.2471481089 0.0000000000 
Al 2.0259369586 12.1754457884 2.0255596553 
Al 0.0049737366 14.2432401352 1.9917812156 
Al 0.0011271475 12.1873649759 4.0419804201 
Al 2.0252580243 14.2131585275 4.0425947948 
Al 2.0271127904 12.1717685359 6.0831328111 
Al 0.0011297933 14.1999613770 6.0853410676 
Al 16.2272969510 12.1698566187 8.1139995846 
Al 2.0292490788 14.1983436823 8.1139995846 
Al 2.0271127904 12.1717685359 10.1448663581 
Al 0.0011297933 14.1999613770 10.1426581016 
Al 0.0011271475 12.1873649759 12.1860187490 
Al 2.0252580243 14.2131585275 12.1854038451 
Al 2.0259369586 12.1754457884 14.2024395139 
Al 0.0049737366 14.2432401352 14.2362174244 
Al 4.0093508241 0.0368238546 0.0000000000 
Al 6.0791438732 2.0274482887 0.0000000000 
Al 6.0810542030 0.0025596302 2.0255585969 
Al 4.0132561519 2.0235239105 1.9917796280 
Al 4.0433393472 0.0032396229 4.0425937365 
Al 6.0691344863 2.0273694413 4.0419798909 
Al 6.0847309262 0.0013853859 6.0831322819 
Al 4.0565359685 2.0273673246 6.0853410676 
Al 4.0581536632 16.2272472083 8.1139995846 
Al 6.0866433727 2.0291988069 8.1139995846 
Al 6.0847309262 0.0013853859 10.1448668873 
Al 4.0565359685 2.0273673246 10.1426581016 
Al 4.0433393472 0.0032396229 12.1854049035 
Al 6.0691344863 2.0273694413 12.1860187490 
Al 6.0810542030 0.0025596302 14.2024405722 
Al 4.0132561519 2.0235239105 14.2362190119 
Al 4.0200449664 4.0200449664 0.0000000000 
Al 6.0705262224 6.0705262224 0.0000000000 
Al 6.0814076934 4.0539006660 2.0265502750 
Al 4.0539006660 6.0814076934 2.0265502750 
Al 4.0571085382 4.0571085382 4.0549029276 
Al 6.0883118684 6.0883118684 4.0592442974 
Al 6.0858993495 4.0556152001 6.0843684398 
Al 4.0556152001 6.0858993495 6.0843684398 
Al 4.0571582809 4.0571582809 8.1139995846 
Al 6.0847277512 6.0847277512 8.1139995846 
Al 6.0858993495 4.0556152001 10.1436307293 
Al 4.0556152001 6.0858993495 10.1436307293 
Al 4.0571085382 4.0571085382 12.1730962416 
Al 6.0883118684 6.0883118684 12.1687543425 
Al 6.0814076934 4.0539006660 14.2014488941 
Al 4.0539006660 6.0814076934 14.2014488941 
Al 4.0563703360 8.1146113134 0.0000000000 
Al 6.0835503319 10.1441858362 0.0000000000 
Al 6.0856807993 8.1120707336 2.0270741604 
Al 4.0578350985 10.1437201602 2.0280430839 
Al 4.0551680454 8.1129115962 4.0569481975 
Al 6.0856606906 10.1421299827 4.0566804338 
Al 6.0846954714 8.1145123573 6.0855575010 
Al 4.0569677771 10.1421781379 6.0864184724 
Al 4.0579494008 8.1146610561 8.1139995846 
Al 6.0867799004 10.1427327156 8.1139995846 
Al 6.0846954714 8.1145123573 10.1424411389 
Al 4.0569677771 10.1421781379 10.1415801676 
Al 4.0551680454 8.1129115962 12.1710504425 
Al 6.0856606906 10.1421299827 12.1713182061 
Al 6.0856807993 8.1120707336 14.2009250087 
Al 4.0578350985 10.1437201602 14.1999560852 
Al 4.0415120983 12.1849572196 0.0000000000 
Al 6.0715448885 14.2149863055 0.0000000000 
Al 6.0854760078 12.1710261003 2.0254961540 
Al 4.0567714523 14.1997280099 2.0250177778 
Al 4.0572360699 12.1701016277 4.0592739313 
Al 6.0863988928 14.1992618047 4.0592728730 
Al 6.0848394076 12.1716600546 6.0854384362 
Al 4.0546399265 14.2018574189 6.0815002994 
Al 4.0575620431 12.1711684490 8.1139995846 
Al 6.0853304840 14.1989353024 8.1139995846 
Al 6.0848394076 12.1716600546 10.1425607330 
Al 4.0546399265 14.2018574189 10.1464983406 
Al 4.0572360699 12.1701016277 12.1687247086 
Al 6.0863988928 14.1992618047 12.1687262962 
Al 6.0854760078 12.1710261003 14.2025030151 
Al 4.0567714523 14.1997280099 14.2029808622 
Al 8.1133576926 0.0006233708 0.0000000000 
Al 10.1431422987 2.0278716305 0.0000000000 
Al 10.1420950570 16.2275086219 2.0280748345 
Al 8.1144049343 2.0289855485 2.0280753637 
Al 8.1124469786 0.0015330264 4.0570804918 
Al 10.1440535419 2.0269635624 4.0570815502 
Al 10.1446795585 16.2277266429 6.0835736157 
Al 8.1118220204 2.0287691150 6.0835741449 
Al 8.1142969822 0.0000788474 8.1139995846 
Al 10.1422040675 2.0284193289 8.1139995846 
Al 10.1446795585 16.2277266429 10.1444250243 
Al 8.1118220204 2.0287691150 10.1444244951 
Al 8.1124469786 0.0015330264 12.1709181482 
Al 10.1440535419 2.0269635624 12.1709170898 
Al 10.1420950570 16.2275086219 14.1999238054 
Al 8.1144049343 2.0289855485 14.1999238054 
Al 8.1146113134 4.0563703360 0.0000000000 
Al 10.1441858362 6.0835503319 0.0000000000 
Al 10.1437201602 4.0578350985 2.0280430839 
Al 8.1120707336 6.0856807993 2.0270741604 
Al 8.1129115962 4.0551680454 4.0569481975 
Al 10.1421299827 6.0856606906 4.0566804338 
Al 10.1421781379 4.0569677771 6.0864184724 
Al 8.1145123573 6.0846954714 6.0855575010 
Al 8.1146610561 4.0579494008 8.1139995846 
Al 10.1427327156 6.0867799004 8.1139995846 
Al 10.1421781379 4.0569677771 10.1415801676 
Al 8.1145123573 6.0846954714 10.1424411389 
Al 8.1129115962 4.0551680454 12.1710504425 
Al 10.1421299827 6.0856606906 12.1713182061 
Al 10.1437201602 4.0578350985 14.1999560852 
Al 8.1120707336 6.0856807993 14.2009250087 
Al 8.1120659710 8.1120659710 0.0000000000 
Al 10.1444371954 10.1444371954 0.0000000000 
Al 10.1422141219 8.1142890445 2.0288553709 
Al 8.1142890445 10.1422141219 2.0288553709 
Al 8.1140535606 8.1140535606 4.0573223258 
Al 10.1424485474 10.1424485474 4.0573217966 
Al 10.1425755499 8.1139249706 6.0847753771 
Al 8.1139249706 10.1425755499 6.0847753771 
Al 8.1132624407 8.1132624407 8.1139995846 
Al 10.1432386090 10.1432386090 8.1139995846 
Al 10.1425755499 8.1139249706 10.1432232628 
Al 8.1139249706 10.1425755499 10.1432232628 
Al 8.1140535606 8.1140535606 12.1706763142 
Al 10.1424485474 10.1424485474 12.1706773725 
Al 10.1422141219 8.1142890445 14.1991437982 
Al 8.1142890445 10.1422141219 14.1991437982 
Al 8.1123168010 12.1729512470 0.0000000000 
Al 10.1418892071 14.2001264803 0.0000000000 
Al 10.1444313744 12.1708197212 2.0270731021 
Al 8.1127814186 14.1986622470 2.0280414964 
Al 8.1143715962 12.1708398299 4.0566793755 
Al 10.1435894535 14.2013287709 4.0569471392 
Al 10.1419897508 12.1718039908 6.0855564427 
Al 8.1143234410 14.1995300976 6.0864174140 
Al 8.1137683341 12.1697195618 8.1139995846 
Al 10.1418410520 14.1985474155 8.1139995846 
Al 10.1419897508 12.1718039908 10.1424421973 
Al 8.1143234410 14.1995300976 10.1415812260 
Al 8.1143715962 12.1708398299 12.1713192645 
Al 10.1435894535 14.2013287709 12.1710520300 
Al 10.1444313744 12.1708197212 14.2009260671 
Al 8.1127814186 14.1986622470 14.1999571436 
Al 12.1773545306 0.0010467125 0.0000000000 
Al 14.2471481089 1.9916737926 0.0000000000 
Al 14.2432401352 0.0049737366 1.9917812156 
Al 12.1754457884 2.0259369586 2.0255596553 
Al 12.1873649759 0.0011271475 4.0419804201 
Al 14.2131585275 2.0252580243 4.0425947948 
Al 14.1999613770 0.0011297933 6.0853410676 
Al 12.1717685359 2.0271127904 6.0831328111 
Al 12.1698566187 16.2272969510 8.1139995846 
Al 14.1983436823 2.0292490788 8.1139995846 
Al 14.1999613770 0.0011297933 10.1426581016 
Al 12.1717685359 2.0271127904 10.1448663581 
Al 12.1873649759 0.0011271475 12.1860187490 
Al 14.2131585275 2.0252580243 12.1854038451 
Al 14.2432401352 0.0049737366 14.2362174244 
Al 12.1754457884 2.0259369586 14.2024395139 
Al 12.1849572196 4.0415120983 0.0000000000 
Al 14.2149863055 6.0715448885 0.0000000000 
Al 14.1997280099 4.0567714523 2.0250177778 
Al 12.1710261003 6.0854760078 2.0254961540 
Al 12.1701016277 4.0572360699 4.0592739313 
Al 14.1992618047 6.0863988928 4.0592728730 
Al 14.2018574189 4.0546399265 6.0815002994 
Al 12.1716600546 6.0848394076 6.0854384362 
Al 12.1711684490 4.0575620431 8.1139995846 
Al 14.1989353024 6.0853304840 8.1139995846 
Al 14.2018574189 4.0546399265 10.1464983406 
Al 12.1716600546 6.0848394076 10.1425607330 
Al 12.1701016277 4.0572360699 12.1687247086 
Al 14.1992618047 6.0863988928 12.1687262962 
Al 14.1997280099 4.0567714523 14.2029808622 
Al 12.1710261003 6.0854760078 14.2025030151 
Al 12.1729512470 8.1123168010 0.0000000000 
Al 14.2001264803 10.1418892071 0.0000000000 
Al 14.1986622470 8.1127814186 2.0280414964 
Al 12.1708197212 10.1444313744 2.0270731021 
Al 12.1708398299 8.1143715962 4.0566793755 
Al 14.2013287709 10.1435894535 4.0569471392 
Al 14.1995300976 8.1143234410 6.0864174140 
Al 12.1718039908 10.1419897508 6.0855564427 
Al 12.1697195618 8.1137683341 8.1139995846 
Al 14.1985474155 10.1418410520 8.1139995846 
Al 14.1995300976 8.1143234410 10.1415812260 
Al 12.1718039908 10.1419897508 10.1424421973 
Al 12.1708398299 8.1143715962 12.1713192645 
Al 14.2013287709 10.1435894535 12.1710520300 
Al 14.1986622470 8.1127814186 14.1999571436 
Al 12.1708197212 10.1444313744 14.2009260671 
Al 12.1859727106 12.1859727106 0.0000000000 
Al 14.2364497332 14.2364497332 0.0000000000 
Al 14.2025956212 12.1750907105 2.0265497458 
Al 12.1750907105 14.2025956212 2.0265497458 
Al 12.1681875938 12.1681875938 4.0592432391 
Al 14.1993888073 14.1993888073 4.0549029276 
Al 14.2008816162 12.1706006418 6.0843679107 
Al 12.1706006418 14.2008816162 6.0843679107 
Al 12.1717722402 12.1717722402 8.1139995846 
Al 14.1993390646 14.1993390646 8.1139995846 
Al 14.2008816162 12.1706006418 10.1436307293 
Al 12.1706006418 14.2008816162 10.1436307293 
Al 12.1681875938 12.1681875938 12.1687554009 
Al 14.1993888073 14.1993888073 12.1730957124 
Al 14.2025956212 12.1750907105 14.2014488941 
Al 12.1750907105 14.2025956212 14.2014488941 

