&CONTROL
/
&SYSTEM
   ntyp             = 3
   nat              = 22
   ibrav            = 0
/
&ELECTRONS
/
&IONS
/
&CELL
/

ATOMIC_SPECIES
Al 26.9815385 Al_dummy.UPF
Mg 24.305 Mg_dummy.UPF
Si 28.085 Si_dummy.UPF

K_POINTS gamma

CELL_PARAMETERS angstrom
14.49965983185253 0.00000000000000 -4.31685675954080
0.00000000000000 4.12158666460227 0.00664540741026
0.00000000000000 0.00412176129308 6.64555081728478

ATOMIC_POSITIONS angstrom
Al 0.0204114234 0.0041217613 6.5617534893 
Mg 1.0627259541 2.0616172612 1.9146779793 
Mg 2.2433129024 2.0654850174 5.3217293567 
Mg 5.0474589252 4.1210172699 -0.9922855880 
Mg 6.2280649238 0.0032983616 2.4081828249 
Si 0.8571511913 0.0052780135 4.0862667317 
Si 2.6646273929 0.0012033490 0.5753489805 
Al 3.1806122156 0.0029988473 3.0957485955 
Al 4.1101178069 2.0619157172 1.2270428864 
Si 4.6260370116 2.0637112154 3.7474319179 
Si 6.4335502557 2.0596370801 0.2365591468 
Al 7.2703297119 2.0649150936 4.4066417277 
Mg 8.3126627638 4.1224111227 -0.2405269175 
Mg 9.4931708647 0.0046964477 3.1599023363 
Mg 12.2972607947 2.0602186459 -3.1539586179 
Mg 13.4777895335 2.0640911647 0.2531768987 
Si 8.1069033182 2.0660718750 1.9310713601 
Si 9.9145573233 2.0619929770 -1.5797712479 
Al 10.4303225375 2.0637900628 0.9405923830 
Al 11.3600673169 4.1227111662 -0.9280117240 
Si 11.8757669131 4.1245082520 1.5923418525 
Si 13.6834584898 4.1204304124 -1.9184557754 

