&CONTROL
/
&SYSTEM
   ntyp             = 3
   nat              = 176
   ibrav            = 0
/
&ELECTRONS
/
&IONS
/
&CELL
/

ATOMIC_SPECIES
Mg 24.305 Mg_dummy.UPF
Si 28.085 Si_dummy.UPF
Al 26.9815385 Al_dummy.UPF

K_POINTS gamma

CELL_PARAMETERS angstrom
121.02247985734591 0.00000000000000 0.00000000000000
0.00000000000000 4.05703339504001 0.00000000000000
-1.68781388815663 0.00000000000000 6.18865074684859

ATOMIC_POSITIONS angstrom
Mg 3.7375389499 0.0000000000 0.0768402352 
Mg 4.3044004572 2.0285166975 2.3240843951 
Mg 4.5351772846 2.0285166975 5.7409964606 
Mg 8.9972900134 0.0000000000 0.4328045153 
Mg 9.2141669430 0.0000000000 3.8620204802 
Si 3.4778304169 0.0000000000 4.1198589010 
Si 6.3130788303 0.0000000000 1.5553857037 
Si 5.8855793165 0.0000000000 3.9635981625 
Si 7.6448945710 2.0285166975 2.2245091194 
Si 7.2444656465 2.0285166975 4.6381202441 
Si 10.0543251957 2.0285166975 2.0468775592 
Mg 9.8372598790 2.0285166975 6.1361082124 
Mg 12.1537008384 0.0000000000 2.2254510548 
Mg 12.3726537303 0.0000000000 5.6631354426 
Mg 1.0946935494 2.0285166975 0.5430247198 
Mg 1.3759062567 2.0285166975 3.9234277913 
Si 11.3261893919 2.0285166975 4.0481014129 
Si 14.1219029759 2.0285166975 1.4679740953 
Si 119.3217170028 2.0285166975 3.7859083929 
Si 15.4617262261 0.0000000000 2.1654211920 
Si -0.3631028807 0.0000000000 4.7959870354 
Si 2.1484102614 0.0000000000 2.1332609762 
Mg 17.6713792244 0.0000000000 6.1157026100 
Mg 19.9847387850 2.0285166975 2.2107002400 
Mg 20.2031593245 2.0285166975 5.6493953563 
Mg 24.6516383316 0.0000000000 0.3943571451 
Mg 24.8678405603 0.0000000000 3.8355346317 
Si 19.1532511009 0.0000000000 4.0233951873 
Si 21.9510110131 0.0000000000 1.4599533564 
Si 21.5683894310 0.0000000000 3.8797939552 
Si 23.2839226798 2.0285166975 2.1656725512 
Si 22.9031489845 2.0285166975 4.5852559699 
Si 25.6965458307 2.0285166975 2.0201837440 
Mg 25.4898021155 2.0285166975 6.1176642699 
Mg 27.7980688745 0.0000000000 2.2106954774 
Mg 28.0143806429 0.0000000000 5.6499038956 
Mg 16.8273002978 2.0285166975 0.3930633068 
Mg 17.0450879414 2.0285166975 3.8319166471 
Si 26.9687830968 2.0285166975 4.0254976084 
Si 29.7598833138 2.0285166975 1.4593273397 
Si 13.7382494982 2.0285166975 3.8855974417 
Si 31.0887446582 0.0000000000 2.1668854254 
Si 15.0747743869 0.0000000000 4.5845214719 
Si 17.8765126534 0.0000000000 2.0191386190 
Mg 33.2898662615 0.0000000000 6.1173621098 
Mg 35.5964671707 2.0285166975 2.2102890693 
Mg 35.8113707985 2.0285166975 5.6506876071 
Mg 40.2506955691 0.0000000000 0.3978777611 
Mg 40.4660299471 0.0000000000 3.8379381546 
Si 34.7681582541 0.0000000000 4.0260929327 
Si 37.5564707656 0.0000000000 1.4595173143 
Si 37.1784450876 0.0000000000 3.8791510049 
Si 38.8847336105 2.0285166975 2.1684729570 
Si 38.5059464465 2.0285166975 4.5884426751 
Si 41.2955575589 2.0285166975 2.0228619098 
Mg 41.0852508935 2.0285166975 6.1198921060 
Mg 43.3940161375 0.0000000000 2.2135853142 
Mg 43.6079603670 0.0000000000 5.6545950516 
Mg 32.4556612524 2.0285166975 0.3953578192 
Mg 32.6706918827 2.0285166975 3.8359558567 
Si 42.5643440604 2.0285166975 4.0291859735 
Si 45.3577948826 2.0285166975 1.4630299927 
Si 29.3805410429 2.0285166975 3.8790816827 
Si 46.6854216565 0.0000000000 2.1710590460 
Si 30.7102173201 0.0000000000 4.5865905548 
Si 33.4992256997 0.0000000000 2.0199186262 
Mg 48.8897061520 0.0000000000 6.1151422114 
Mg 51.1973982247 2.0285166975 2.2021407987 
Mg 51.4063290293 2.0285166975 5.6383329067 
Mg 55.8628843390 0.0000000000 0.3507465928 
Mg 56.0876576510 0.0000000000 3.7724096114 
Si 50.3575786453 0.0000000000 4.0180452057 
Si 53.1636000722 0.0000000000 1.4354265218 
Si 52.7637627679 0.0000000000 3.8492218002 
Si 54.5105359933 2.0285166975 2.1265293129 
Si 54.0840842504 2.0285166975 4.5346650411 
Si 56.9155432258 2.0285166975 1.9780876969 
Mg 56.6510149467 2.0285166975 6.0198691464 
Mg 59.0067092133 0.0000000000 2.1757353850 
Mg 59.2884188180 0.0000000000 5.5625600219 
Mg 48.0519450721 2.0285166975 0.3948397547 
Mg 48.2667851986 2.0285166975 3.8360860343 
Si 58.2407384304 2.0285166975 3.9674828524 
Si 60.7421924429 2.0285166975 1.3092061152 
Si 44.9748044640 2.0285166975 3.8820821175 
Si 62.0717893436 0.0000000000 2.3316579793 
Si 46.3048665114 0.0000000000 4.5892221531 
Si 49.0937330715 0.0000000000 2.0133727041 
Al 65.3148524077 0.0000000000 4.4853324956 
Al 64.1999326470 2.0285166975 6.1612642387 
Al 66.9941555388 2.0285166975 5.6095356121 
Al 67.5440807294 0.0000000000 1.1027460390 
Al 70.3491125949 0.0000000000 0.5507438278 
Al 69.2319406560 2.0285166975 2.2382402096 
Al 72.0293862370 2.0285166975 1.6781278285 
Al 73.7062212855 0.0000000000 2.8026241092 
Al 60.8539430279 2.0285166975 3.8850830814 
Al 63.6823751096 2.0285166975 3.3697401507 
Al 62.4323235981 0.0000000000 5.0130602898 
Al 64.7240736780 0.0000000000 1.6584228567 
Al 66.4421961909 2.0285166975 2.7886310762 
Al 68.1014805481 0.0000000000 3.9213761712 
Al 70.9054932183 0.0000000000 3.3657311041 
Al 69.7867919573 2.0285166975 5.0529978230 
Al 72.5871797635 2.0285166975 4.4915402735 
Al 71.4614028740 0.0000000000 6.1783323204 
Al 74.2625151239 0.0000000000 5.6187157783 
Al 74.8292274032 2.0285166975 1.1163564768 
Al 76.5062413137 0.0000000000 2.2456656242 
Al 63.1291981250 2.0285166975 0.4751339296 
Al 79.8620265321 0.0000000000 4.5026641076 
Al 80.4278450311 2.0285166975 0.0013525770 
Al 81.5403808484 2.0285166975 5.6286521388 
Al 82.1059379339 0.0000000000 1.1275480456 
Al 84.9080662040 0.0000000000 0.5651760778 
Al 83.7854442690 2.0285166975 2.2529904952 
Al 86.5887684796 2.0285166975 1.6901634350 
Al 88.2693342275 0.0000000000 2.8149909806 
Al 75.3842501579 2.0285166975 3.9319930536 
Al 78.1842987616 2.0285166975 3.3755722127 
Al 77.0618678596 0.0000000000 5.0616805627 
Al 79.3064470830 0.0000000000 1.6885822535 
Al 80.9841441612 2.0285166975 2.8153920969 
Al 82.6627487784 0.0000000000 3.9408334881 
Al 85.4657459575 0.0000000000 3.3780609331 
Al 84.3429599776 2.0285166975 5.0659573729 
Al 87.1464170117 2.0285166975 4.5029556842 
Al 87.7114502117 0.0000000000 0.0022198984 
Al 88.8270467900 0.0000000000 5.6277361331 
Al 89.3921085656 2.0285166975 1.1270490315 
Al 91.0729928781 0.0000000000 2.2518792230 
Al 77.6289902512 2.0285166975 0.5600187167 
Al 94.4375518547 0.0000000000 4.5024085150 
Al 95.0017759428 2.0285166975 0.0014801087 
Al 96.1214794655 2.0285166975 5.6281473038 
Al 96.6854379066 0.0000000000 1.1271188829 
Al 99.4933051035 0.0000000000 0.5653644649 
Al 98.3694978116 2.0285166975 2.2529820283 
Al 101.1766876617 2.0285166975 1.6915165411 
Al 102.8597908144 0.0000000000 2.8172288710 
Al 89.9498878044 2.0285166975 3.9398333432 
Al 92.7546069261 2.0285166975 3.3769909368 
Al 91.6313124069 0.0000000000 5.0648005915 
Al 93.8781924928 0.0000000000 1.6891855155 
Al 95.5615586465 2.0285166975 2.8147528508 
Al 97.2453915345 0.0000000000 3.9405651952 
Al 100.0527650091 0.0000000000 3.3789176710 
Al 98.9293244370 2.0285166975 5.0666558868 
Al 101.7360348526 2.0285166975 4.5050067751 
Al 102.3005521048 0.0000000000 0.0039894670 
Al 103.4192523075 0.0000000000 5.6299883113 
Al 103.9843564172 2.0285166975 1.1299341057 
Al 105.6682797945 0.0000000000 2.2536477333 
Al 92.1960064043 2.0285166975 0.5640182381 
Al 109.0360371182 0.0000000000 4.4894420858 
Al 107.9135945743 2.0285166975 6.1808141615 
Al 110.7223338553 2.0285166975 5.6059689577 
Al 111.2838078094 0.0000000000 1.1071101634 
Al 114.0858551154 0.0000000000 0.5351447420 
Al 112.9750671704 2.0285166975 2.2273592678 
Al 115.7697388044 2.0285166975 1.6488278155 
Al 117.4091726661 0.0000000000 2.7547658514 
Al 104.5442825280 2.0285166975 3.9421103927 
Al 107.3536028456 2.0285166975 3.3737941773 
Al 106.2274968078 0.0000000000 5.0633331831 
Al 108.4743954150 0.0000000000 1.6821194122 
Al 110.1619373060 2.0285166975 2.7982636890 
Al 111.8426485777 0.0000000000 3.9141761861 
Al 114.6415509835 0.0000000000 3.3487651536 
Al 113.5350493739 2.0285166975 5.0382575918 
Al 116.3629067692 2.0285166975 4.4707541926 
Al 115.2003827558 0.0000000000 6.1574668630 
Al 117.9664396613 0.0000000000 5.6408083977 
Al 118.6608106509 2.0285166975 1.1105117145 
Al 120.2479152366 0.0000000000 2.2254468214 
Al 106.7920754446 2.0285166975 0.5641531783 

