&CONTROL
/
&SYSTEM
   ntyp             = 3
   nat              = 22
   ibrav            = 0
/
&ELECTRONS
/
&IONS
/
&CELL
/

ATOMIC_SPECIES
Al 26.9815385 Al_dummy.UPF
Mg 24.305 Mg_dummy.UPF
Si 28.085 Si_dummy.UPF

K_POINTS gamma

CELL_PARAMETERS angstrom
14.49965983185253 0.00000000000000 -4.31353405583567
0.00000000000000 4.12158666460227 0.00000000000000
0.00724972778472 0.00000000000000 6.64339230344289

ATOMIC_POSITIONS angstrom
Al 0.0277220065 0.0000000000 6.5608126122 
Mg 1.0657454392 2.0607933323 1.9116674901 
Mg 2.2491751275 2.0607933323 5.3180039491 
Mg 5.0488517196 0.0000000000 -0.9973688643 
Mg 6.2322972832 0.0000000000 2.4090379753 
Si 0.8617095238 0.0000000000 4.0855851514 
Si 2.6665451311 0.0000000000 0.5761390421 
Al 3.1853351222 0.0000000000 3.0961825208 
Al 4.1126409239 2.0607933323 1.2244435680 
Si 4.6313663553 2.0607933323 3.7444738173 
Si 6.4362432385 2.0607933323 0.2350927967 
Al 7.2775122342 2.0607933323 4.4032729856 
Mg 8.3153975516 0.0000000000 -0.2459647425 
Mg 9.4987097625 0.0000000000 3.1609030104 
Mg 12.2989779748 2.0607933323 -3.1537993355 
Mg 13.4823050026 2.0607933323 0.2531382688 
Si 8.1114087330 2.0607933323 1.9281217263 
Si 9.9165126331 2.0607933323 -1.5808364816 
Al 10.4352486481 2.0607933323 0.9392704984 
Al 11.3623872298 0.0000000000 -0.9321752903 
Si 11.8810597435 0.0000000000 1.5879189894 
Si 13.6862038612 0.0000000000 -1.9209757173 

