&CONTROL
/
&SYSTEM
   ntyp             = 1
   nat              = 196
   ibrav            = 0
/
&ELECTRONS
/
&IONS
/
&CELL
/

ATOMIC_SPECIES
Al 26.9815385 Al_dummy.UPF

K_POINTS gamma

CELL_PARAMETERS angstrom
28.39899999997728 0.00000000000000 0.00000000000000
0.00000000000000 4.05699999998919 0.00000000000000
0.00000000000000 0.00000000000000 28.39899999997728

ATOMIC_POSITIONS angstrom
Al 0.0000000000 0.0000000000 0.0000000000 
Al 2.0285000000 2.0285000000 0.0000000000 
Al 2.0285000000 0.0000000000 2.0285000000 
Al 0.0000000000 2.0285000000 2.0285000000 
Al 0.0000000000 0.0000000000 4.0570000000 
Al 2.0285000000 2.0285000000 4.0570000000 
Al 2.0285000000 0.0000000000 6.0855000000 
Al 0.0000000000 2.0285000000 6.0855000000 
Al 0.0000000000 0.0000000000 8.1140000000 
Al 2.0285000000 2.0285000000 8.1140000000 
Al 2.0285000000 0.0000000000 10.1425000000 
Al 0.0000000000 2.0285000000 10.1425000000 
Al 0.0000000000 0.0000000000 12.1710000000 
Al 2.0285000000 2.0285000000 12.1710000000 
Al 2.0285000000 0.0000000000 14.1995000000 
Al 0.0000000000 2.0285000000 14.1995000000 
Al 0.0000000000 0.0000000000 16.2280000000 
Al 2.0285000000 2.0285000000 16.2280000000 
Al 2.0285000000 0.0000000000 18.2565000000 
Al 0.0000000000 2.0285000000 18.2565000000 
Al 0.0000000000 0.0000000000 20.2850000000 
Al 2.0285000000 2.0285000000 20.2850000000 
Al 2.0285000000 0.0000000000 22.3135000000 
Al 0.0000000000 2.0285000000 22.3135000000 
Al 0.0000000000 0.0000000000 24.3420000000 
Al 2.0285000000 2.0285000000 24.3420000000 
Al 2.0285000000 0.0000000000 26.3705000000 
Al 0.0000000000 2.0285000000 26.3705000000 
Al 4.0570000000 0.0000000000 0.0000000000 
Al 6.0855000000 2.0285000000 0.0000000000 
Al 6.0855000000 0.0000000000 2.0285000000 
Al 4.0570000000 2.0285000000 2.0285000000 
Al 4.0570000000 0.0000000000 4.0570000000 
Al 6.0855000000 2.0285000000 4.0570000000 
Al 6.0855000000 0.0000000000 6.0855000000 
Al 4.0570000000 2.0285000000 6.0855000000 
Al 4.0570000000 0.0000000000 8.1140000000 
Al 6.0855000000 2.0285000000 8.1140000000 
Al 6.0855000000 0.0000000000 10.1425000000 
Al 4.0570000000 2.0285000000 10.1425000000 
Al 4.0570000000 0.0000000000 12.1710000000 
Al 6.0855000000 2.0285000000 12.1710000000 
Al 6.0855000000 0.0000000000 14.1995000000 
Al 4.0570000000 2.0285000000 14.1995000000 
Al 4.0570000000 0.0000000000 16.2280000000 
Al 6.0855000000 2.0285000000 16.2280000000 
Al 6.0855000000 0.0000000000 18.2565000000 
Al 4.0570000000 2.0285000000 18.2565000000 
Al 4.0570000000 0.0000000000 20.2850000000 
Al 6.0855000000 2.0285000000 20.2850000000 
Al 6.0855000000 0.0000000000 22.3135000000 
Al 4.0570000000 2.0285000000 22.3135000000 
Al 4.0570000000 0.0000000000 24.3420000000 
Al 6.0855000000 2.0285000000 24.3420000000 
Al 6.0855000000 0.0000000000 26.3705000000 
Al 4.0570000000 2.0285000000 26.3705000000 
Al 8.1140000000 0.0000000000 0.0000000000 
Al 10.1425000000 2.0285000000 0.0000000000 
Al 10.1425000000 0.0000000000 2.0285000000 
Al 8.1140000000 2.0285000000 2.0285000000 
Al 8.1140000000 0.0000000000 4.0570000000 
Al 10.1425000000 2.0285000000 4.0570000000 
Al 10.1425000000 0.0000000000 6.0855000000 
Al 8.1140000000 2.0285000000 6.0855000000 
Al 8.1140000000 0.0000000000 8.1140000000 
Al 10.1425000000 2.0285000000 8.1140000000 
Al 10.1425000000 0.0000000000 10.1425000000 
Al 8.1140000000 2.0285000000 10.1425000000 
Al 8.1140000000 0.0000000000 12.1710000000 
Al 10.1425000000 2.0285000000 12.1710000000 
Al 10.1425000000 0.0000000000 14.1995000000 
Al 8.1140000000 2.0285000000 14.1995000000 
Al 8.1140000000 0.0000000000 16.2280000000 
Al 10.1425000000 2.0285000000 16.2280000000 
Al 10.1425000000 0.0000000000 18.2565000000 
Al 8.1140000000 2.0285000000 18.2565000000 
Al 8.1140000000 0.0000000000 20.2850000000 
Al 10.1425000000 2.0285000000 20.2850000000 
Al 10.1425000000 0.0000000000 22.3135000000 
Al 8.1140000000 2.0285000000 22.3135000000 
Al 8.1140000000 0.0000000000 24.3420000000 
Al 10.1425000000 2.0285000000 24.3420000000 
Al 10.1425000000 0.0000000000 26.3705000000 
Al 8.1140000000 2.0285000000 26.3705000000 
Al 12.1710000000 0.0000000000 0.0000000000 
Al 14.1995000000 2.0285000000 0.0000000000 
Al 14.1995000000 0.0000000000 2.0285000000 
Al 12.1710000000 2.0285000000 2.0285000000 
Al 12.1710000000 0.0000000000 4.0570000000 
Al 14.1995000000 2.0285000000 4.0570000000 
Al 14.1995000000 0.0000000000 6.0855000000 
Al 12.1710000000 2.0285000000 6.0855000000 
Al 12.1710000000 0.0000000000 8.1140000000 
Al 14.1995000000 2.0285000000 8.1140000000 
Al 14.1995000000 0.0000000000 10.1425000000 
Al 12.1710000000 2.0285000000 10.1425000000 
Al 12.1710000000 0.0000000000 12.1710000000 
Al 14.1995000000 2.0285000000 12.1710000000 
Al 14.1995000000 0.0000000000 14.1995000000 
Al 12.1710000000 2.0285000000 14.1995000000 
Al 12.1710000000 0.0000000000 16.2280000000 
Al 14.1995000000 2.0285000000 16.2280000000 
Al 14.1995000000 0.0000000000 18.2565000000 
Al 12.1710000000 2.0285000000 18.2565000000 
Al 12.1710000000 0.0000000000 20.2850000000 
Al 14.1995000000 2.0285000000 20.2850000000 
Al 14.1995000000 0.0000000000 22.3135000000 
Al 12.1710000000 2.0285000000 22.3135000000 
Al 12.1710000000 0.0000000000 24.3420000000 
Al 14.1995000000 2.0285000000 24.3420000000 
Al 14.1995000000 0.0000000000 26.3705000000 
Al 12.1710000000 2.0285000000 26.3705000000 
Al 16.2280000000 0.0000000000 0.0000000000 
Al 18.2565000000 2.0285000000 0.0000000000 
Al 18.2565000000 0.0000000000 2.0285000000 
Al 16.2280000000 2.0285000000 2.0285000000 
Al 16.2280000000 0.0000000000 4.0570000000 
Al 18.2565000000 2.0285000000 4.0570000000 
Al 18.2565000000 0.0000000000 6.0855000000 
Al 16.2280000000 2.0285000000 6.0855000000 
Al 16.2280000000 0.0000000000 8.1140000000 
Al 18.2565000000 2.0285000000 8.1140000000 
Al 18.2565000000 0.0000000000 10.1425000000 
Al 16.2280000000 2.0285000000 10.1425000000 
Al 16.2280000000 0.0000000000 12.1710000000 
Al 18.2565000000 2.0285000000 12.1710000000 
Al 18.2565000000 0.0000000000 14.1995000000 
Al 16.2280000000 2.0285000000 14.1995000000 
Al 16.2280000000 0.0000000000 16.2280000000 
Al 18.2565000000 2.0285000000 16.2280000000 
Al 18.2565000000 0.0000000000 18.2565000000 
Al 16.2280000000 2.0285000000 18.2565000000 
Al 16.2280000000 0.0000000000 20.2850000000 
Al 18.2565000000 2.0285000000 20.2850000000 
Al 18.2565000000 0.0000000000 22.3135000000 
Al 16.2280000000 2.0285000000 22.3135000000 
Al 16.2280000000 0.0000000000 24.3420000000 
Al 18.2565000000 2.0285000000 24.3420000000 
Al 18.2565000000 0.0000000000 26.3705000000 
Al 16.2280000000 2.0285000000 26.3705000000 
Al 20.2850000000 0.0000000000 0.0000000000 
Al 22.3135000000 2.0285000000 0.0000000000 
Al 22.3135000000 0.0000000000 2.0285000000 
Al 20.2850000000 2.0285000000 2.0285000000 
Al 20.2850000000 0.0000000000 4.0570000000 
Al 22.3135000000 2.0285000000 4.0570000000 
Al 22.3135000000 0.0000000000 6.0855000000 
Al 20.2850000000 2.0285000000 6.0855000000 
Al 20.2850000000 0.0000000000 8.1140000000 
Al 22.3135000000 2.0285000000 8.1140000000 
Al 22.3135000000 0.0000000000 10.1425000000 
Al 20.2850000000 2.0285000000 10.1425000000 
Al 20.2850000000 0.0000000000 12.1710000000 
Al 22.3135000000 2.0285000000 12.1710000000 
Al 22.3135000000 0.0000000000 14.1995000000 
Al 20.2850000000 2.0285000000 14.1995000000 
Al 20.2850000000 0.0000000000 16.2280000000 
Al 22.3135000000 2.0285000000 16.2280000000 
Al 22.3135000000 0.0000000000 18.2565000000 
Al 20.2850000000 2.0285000000 18.2565000000 
Al 20.2850000000 0.0000000000 20.2850000000 
Al 22.3135000000 2.0285000000 20.2850000000 
Al 22.3135000000 0.0000000000 22.3135000000 
Al 20.2850000000 2.0285000000 22.3135000000 
Al 20.2850000000 0.0000000000 24.3420000000 
Al 22.3135000000 2.0285000000 24.3420000000 
Al 22.3135000000 0.0000000000 26.3705000000 
Al 20.2850000000 2.0285000000 26.3705000000 
Al 24.3420000000 0.0000000000 0.0000000000 
Al 26.3705000000 2.0285000000 0.0000000000 
Al 26.3705000000 0.0000000000 2.0285000000 
Al 24.3420000000 2.0285000000 2.0285000000 
Al 24.3420000000 0.0000000000 4.0570000000 
Al 26.3705000000 2.0285000000 4.0570000000 
Al 26.3705000000 0.0000000000 6.0855000000 
Al 24.3420000000 2.0285000000 6.0855000000 
Al 24.3420000000 0.0000000000 8.1140000000 
Al 26.3705000000 2.0285000000 8.1140000000 
Al 26.3705000000 0.0000000000 10.1425000000 
Al 24.3420000000 2.0285000000 10.1425000000 
Al 24.3420000000 0.0000000000 12.1710000000 
Al 26.3705000000 2.0285000000 12.1710000000 
Al 26.3705000000 0.0000000000 14.1995000000 
Al 24.3420000000 2.0285000000 14.1995000000 
Al 24.3420000000 0.0000000000 16.2280000000 
Al 26.3705000000 2.0285000000 16.2280000000 
Al 26.3705000000 0.0000000000 18.2565000000 
Al 24.3420000000 2.0285000000 18.2565000000 
Al 24.3420000000 0.0000000000 20.2850000000 
Al 26.3705000000 2.0285000000 20.2850000000 
Al 26.3705000000 0.0000000000 22.3135000000 
Al 24.3420000000 2.0285000000 22.3135000000 
Al 24.3420000000 0.0000000000 24.3420000000 
Al 26.3705000000 2.0285000000 24.3420000000 
Al 26.3705000000 0.0000000000 26.3705000000 
Al 24.3420000000 2.0285000000 26.3705000000 

