&CONTROL
/
&SYSTEM
   ntyp             = 3
   nat              = 22
   ibrav            = 0
/
&ELECTRONS
/
&IONS
/
&CELL
/

ATOMIC_SPECIES
Mg 24.305 Mg_dummy.UPF
Si 28.085 Si_dummy.UPF
Al 26.9815385 Al_dummy.UPF

K_POINTS gamma

CELL_PARAMETERS angstrom
14.74014494437047 0.00202727789367 -4.22319927257474
0.00736985101152 4.05429490297534 -0.00211141707015
0.00000000000000 0.00000000000000 6.83716800193879

ATOMIC_POSITIONS angstrom
Mg 0.0263387373 4.0540509523 6.7512910075 
Mg 1.1191711704 2.0263809383 2.0568673666 
Mg 2.3043074552 2.0266672232 5.5068847584 
Mg 5.1147284614 4.0547764542 -0.9518739120 
Mg 6.2998525751 4.0550622099 2.4981709971 
Si 0.8780277614 4.0538805572 4.1702032333 
Si 2.7553214875 0.0012229285 0.6537169504 
Al 3.2217970196 4.0545573749 3.2187939389 
Al 4.1972198466 2.0268857734 1.3362391330 
Si 4.6563567491 2.0259237292 3.9034106049 
Si 6.5409652917 2.0275588868 0.3848282511 
Mg 7.3926823623 2.0273953710 4.6409180040 
Mg 8.4927581730 4.0540530690 -0.0554487757 
Mg 9.6781093037 4.0544996946 3.3943738790 
Mg 12.4810726155 2.0289712607 -3.0625623051 
Mg 13.6664115751 2.0294173571 0.3872878667 
Si 8.2444333001 2.0272472014 2.0598064168 
Si 10.1290751809 2.0292697167 -1.4588611346 
Al 10.5882163169 2.0283881075 1.1082542446 
Al 11.5709454937 4.0550823187 -0.7764209744 
Si 12.0301183802 4.0541991219 1.7906774711 
Si 13.9073343172 0.0019246175 -1.7258627880 

