&CONTROL
/
&SYSTEM
   ntyp             = 3
   nat              = 22
   ibrav            = 0
/
&ELECTRONS
/
&IONS
/
&CELL
/

ATOMIC_SPECIES
Al 26.9815385 Al_dummy.UPF
Mg 24.305 Mg_dummy.UPF
Si 28.085 Si_dummy.UPF

K_POINTS gamma

CELL_PARAMETERS angstrom
14.54789803883589 0.00000000000000 -4.15139257098728
0.00000000000000 4.12158666460227 0.00000000000000
-0.07570779598374 0.00000000000000 6.64511953785817

ATOMIC_POSITIONS angstrom
Al -0.0543052237 0.0000000000 6.5632076683 
Mg 1.0409725373 2.0607933323 1.9248614655 
Mg 2.1824723401 2.0607933323 5.3452724508 
Mg 5.0585716466 0.0000000000 -0.9396948985 
Mg 6.2000846788 0.0000000000 2.4807637127 
Si 0.8105222122 0.0000000000 4.0972730885 
Si 2.6579957441 0.0000000000 0.6071996277 
Al 3.1451054831 0.0000000000 3.1333297027 
Al 4.0959067529 2.0607933323 1.2722621374 
Si 4.5829757453 2.0607933323 3.7983927416 
Si 6.4304418687 2.0607933323 0.3082991721 
Al 7.2196435311 2.0607933323 4.4875116474 
Mg 8.3149218213 0.0000000000 -0.1508345554 
Mg 9.4564210949 0.0000000000 3.2695759007 
Mg 12.3325209306 2.0607933323 -3.0153914486 
Mg 13.4740339628 2.0607933323 0.4050676918 
Si 8.0844709670 2.0607933323 2.0215765384 
Si 9.9319444989 2.0607933323 -1.4684963932 
Al 10.4190547671 2.0607933323 1.0576336818 
Al 11.3698555078 0.0000000000 -0.8034344127 
Si 11.8569250293 0.0000000000 1.7226961915 
Si 13.7043906236 0.0000000000 -1.7673973780 

