&CONTROL
/
&SYSTEM
   ntyp             = 3
   nat              = 220
   ibrav            = 0
/
&ELECTRONS
/
&IONS
/
&CELL
/

ATOMIC_SPECIES
Mg 24.305 Mg_dummy.UPF
Si 28.085 Si_dummy.UPF
Al 26.9815385 Al_dummy.UPF

K_POINTS gamma

CELL_PARAMETERS angstrom
8.11399588033381 0.00000000000000 12.17099329132350
0.00000000000000 41.83478913643493 0.00000000000000
-6.08549717483896 0.00000000000000 2.02849870549485

ATOMIC_POSITIONS angstrom
Mg -5.8532021380 4.7170591961 2.0516269247 
Mg -1.4626008299 6.5402064516 1.7116136332 
Mg -4.1226862948 6.5777462829 3.7195659751 
Mg 2.4037758371 4.5549452285 4.4500252629 
Mg -0.2720283077 4.5110595040 6.4557063763 
Si -3.2970878239 4.4100903756 2.0232693763 
Si 0.3114281969 4.4966801717 2.7151807502 
Al -1.8846148928 4.3320875380 4.0641286031 
Al 0.1332177169 6.6030303701 4.1601012403 
Si -2.0392806912 6.6133805471 5.4262360348 
Si 1.6474747094 6.6552929697 6.0806943625 
Mg -1.8916386619 6.6693330995 8.1331875502 
Mg 2.5118221816 4.5342549287 7.7212405547 
Mg -0.1495544757 4.4604018989 9.7637756857 
Mg 6.4853297165 6.4516449412 10.5241832285 
Mg 3.8677414150 6.5032254314 12.4758051856 
Si 0.6501592920 6.5995573800 8.1839710996 
Si 4.3776391123 6.5656064286 8.8139142346 
Al 2.1993155215 6.5140539847 10.0858064771 
Al 4.1545972682 4.2939698452 10.1233574212 
Si 2.0009629693 4.3446898933 11.5144378344 
Si 5.8211070110 4.0334114535 12.0398790539 
Mg -5.9171346827 8.5670911666 2.0336126741 
Mg -1.4135270521 10.7959400683 1.6159611482 
Mg -4.1698703808 10.8350012841 3.6834533348 
Mg 2.4545313401 8.7526625016 4.4518255238 
Mg -0.2996148448 8.7549776519 6.5112546373 
Si -3.3726172872 8.7010513191 2.0810682279 
Si 0.3459506598 8.7307249312 2.7209202062 
Al -1.8406169828 8.7389218862 3.9878593501 
Al 0.1239200733 10.8603345847 4.1605346365 
Si -2.0630047639 10.8719193322 5.4261587750 
Si 1.6541682719 10.8835040797 6.0684460268 
Mg -1.8800539144 10.8566393402 8.1403854186 
Mg 2.6166849960 8.7444406753 7.7477941379 
Mg -0.1221102872 8.7111638956 9.7969249337 
Mg 6.5131707879 10.7803981336 10.5517544195 
Mg 3.7518489600 10.7963306011 12.6146226557 
Si 0.6726064601 10.8480804280 8.1816035608 
Si 4.3945172194 10.8339884389 8.8222921682 
Al 2.2077469020 10.8181279395 10.0863637007 
Al 4.1814302570 8.6913520300 10.2488607927 
Si 1.9953642745 8.6630135321 11.5072013361 
Si 5.7314770918 8.6188769776 12.1428161924 
Mg -5.9352240765 12.9568997672 2.0474543624 
Mg -1.4354312844 15.0793364236 1.6426126292 
Mg -4.1763866690 15.0994144653 3.6961604671 
Mg 2.4440705650 13.0053803374 4.4589815872 
Mg -0.3013558379 12.9905713131 6.5169332379 
Si -3.3851079860 12.9640103214 2.0855493006 
Si 0.3363243971 12.9823865292 2.7243921379 
Al -1.8500252244 12.9859902260 3.9841477011 
Al 0.1180530856 15.1120083538 4.1691104824 
Si -2.0680229514 15.1195988717 5.4277542443 
Si 1.6550583480 15.1514098305 6.0662737543 
Mg -1.8804502681 15.1131095716 8.1331319866 
Mg 2.6226366521 12.9902183519 7.7272731749 
Mg -0.1187272573 12.9697894657 9.7843844921 
Mg 6.5004705349 15.0631150254 10.5462324553 
Mg 3.7567464951 15.0779748507 12.6002681947 
Si 0.6695986168 15.1048237148 8.1718106073 
Si 4.3916088615 15.0862363653 8.8110751989 
Al 2.2048321940 15.0822643611 10.0704407585 
Al 4.1753150851 12.9558504088 10.2555501218 
Si 1.9898370185 12.9492378104 11.5144441845 
Si 5.7141851681 12.9151185806 12.1512999614 
Mg -5.9392066642 17.2132768634 2.0537939053 
Mg -1.4447368657 19.3245103090 1.6635590507 
Mg -4.1841004852 19.3575516049 3.7126072948 
Mg 2.4519754141 17.2859879288 4.4660699160 
Mg -0.3082674214 17.2692384118 6.5274273512 
Si -3.3868516249 17.2232465620 2.0949951138 
Si 0.3339256368 17.2345709543 2.7365775015 
Al -1.8529013025 17.2510394783 4.0007040685 
Al 0.1192961228 19.3772650435 4.1645786087 
Si -2.0666550283 19.4050447304 5.4230837262 
Si 1.6694138674 19.4486155943 6.0574851792 
Mg -1.8650808452 19.4945360051 8.1207963367 
Mg 2.6376621098 17.2700887995 7.7041095008 
Mg -0.1174196604 17.2339586963 9.7697257542 
Mg 6.5081240249 19.3170690191 10.5355330213 
Mg 3.7556410439 19.3145586024 12.5930115876 
Si 0.6801805735 19.3674652108 8.1667003430 
Si 4.3980806988 19.3396823488 8.8071058406 
Al 2.2120544045 19.3314853939 10.0730929947 
Al 4.1782118012 17.2091746816 10.2455063383 
Si 1.9912250503 17.1975613586 11.5106711510 
Si 5.7091013626 17.1868026567 12.1529192437 
Mg -5.9508263373 21.3950061055 2.0492345145 
Mg -1.5418636384 23.5334530184 1.6378606178 
Mg -4.2054437896 23.6067800461 3.6822150601 
Mg 2.4256753068 21.6163492908 4.4414525921 
Mg -0.1958855280 21.5645915262 6.3967433348 
Si -3.4090897680 21.4680690738 2.0995941929 
Si 0.3167189106 21.5029804819 2.7297558781 
Al -1.8612649483 21.5550091852 4.0028213065 
Al 0.0987000166 23.7729401027 4.0435780061 
Si -2.0558905054 23.7236308410 5.4332682708 
Si 1.7604942613 24.0348986972 5.9631524621 
Mg -1.7993353394 23.3536470691 8.1379215696 
Mg 2.5908674982 21.5302976679 7.7964191734 
Mg -0.0707594599 21.4902135525 9.8065332043 
Mg 6.4597096019 23.5161044727 10.5356536737 
Mg 3.7828217022 23.5554276312 12.5481024344 
Si 0.7562783731 23.6592691336 8.1160485587 
Si 4.3689341472 23.5753585617 8.7993872618 
Al 2.1768323694 23.7359564366 10.1528230666 
Al 4.1872787235 21.4693750831 10.2455534351 
Si 2.0153264264 21.4557291904 11.5133556670 
Si 5.7023734036 21.4144359051 12.1660931104 
Al -4.1193090859 29.9303741567 1.9896682110 
Al 8.0519397980 27.9046202934 12.1253988537 
Al -4.1170156319 27.9132543488 4.0149902657 
Al -0.0604330958 29.9064246545 1.9986340604 
Al 1.9416215661 29.9118508376 4.0236089749 
Al -0.0758141606 27.8324384052 4.0450522938 
Al 1.8505348221 27.9174792996 6.0398598738 
Al 1.9576424062 29.8854782330 8.0871385494 
Al 1.9521802390 27.8707667105 10.1326407770 
Al 3.9979015460 27.9036466073 12.1227937143 
Al 1.9556384121 29.9140416313 12.1405290885 
Al 6.0129692047 29.9207616527 12.1226016229 
Al -2.0852069229 27.9210554792 1.9806981281 
Al -2.0862996739 29.9192545560 4.0132508602 
Al -0.1057084396 29.9124932588 6.0648989519 
Al -2.1215825644 27.9007297825 6.0138555765 
Al -0.0719363500 27.8605572946 8.1168253909 
Al 3.9632213883 29.8787238151 6.0626933413 
Al -0.0656941756 29.8960310849 10.1123277806 
Al 4.0243328893 27.8756293199 8.1381406489 
Al 3.9842048523 29.9047709757 10.1139047287 
Al 6.0326276089 27.8479522935 10.0894297535 
Al -4.1347097302 33.9452913959 1.9971772356 
Al 8.0391802771 31.9285917547 12.1407714517 
Al -4.1318389439 31.9310487245 4.0261051038 
Al -0.0767566252 33.9467598627 1.9987504794 
Al 1.9513298512 33.9449828856 4.0282334545 
Al -0.0780197712 31.9308952631 4.0301337299 
Al 1.9466789127 31.9197777791 6.0625843308 
Al 1.9499735700 33.9368028643 8.0819192745 
Al 1.9547329899 31.9239884421 10.1082483535 
Al 3.9818881144 31.9309756980 12.1346451671 
Al 1.9498068792 33.9442388624 12.1395167725 
Al 6.0077319379 33.9469037989 12.1394823760 
Al -2.1001598833 31.9326055638 1.9920362790 
Al -2.1067947072 33.9443383478 4.0274254009 
Al -0.0797089049 33.9385364488 6.0577577055 
Al -2.1173338005 31.9247975541 6.0626044395 
Al -0.0795935442 31.9137022955 8.0860272772 
Al 3.9785897529 33.9397202182 6.0558733054 
Al -0.0786203874 33.9407113672 10.1087267297 
Al 3.9822479549 31.9190887903 8.0813504090 
Al 3.9778330295 33.9436768762 10.1099867006 
Al 6.0113224052 31.9293527115 10.1050605900 
Al -4.1432411252 37.9895245234 2.0001136399 
Al 8.0322729270 35.9647760968 12.1415953806 
Al -4.1379260693 35.9629589023 4.0235375360 
Al -0.0810927033 37.9840036176 1.9947885297 
Al 1.9490353388 37.9734232484 4.0180325054 
Al -0.0804693325 35.9593642015 4.0252727080 
Al 1.9500751721 35.9563907547 6.0537449547 
Al 1.9535518663 37.9712520343 8.0760845666 
Al 1.9496428343 35.9588371410 10.1107360155 
Al 3.9743372848 35.9652782860 12.1416239561 
Al 1.9343887720 37.9779979854 12.1470157427 
Al 5.9976484661 37.9831087789 12.1470014550 
Al -2.1099560119 35.9666081083 1.9972169239 
Al -2.1075069797 37.9779101420 4.0221108742 
Al -0.0794739502 37.9718923387 6.0482404533 
Al -2.1083367296 35.9591091381 6.0541540087 
Al -0.0774503765 35.9582640420 8.0821251245 
Al 3.9780637507 37.9756426176 6.0541942261 
Al -0.0780758640 37.9726125489 10.1103714124 
Al 3.9801090206 35.9571368946 8.0828215217 
Al 3.9753125584 37.9721495189 10.1139862220 
Al 6.0059951783 35.9583391852 10.1127818146 
Al -4.1403613429 0.2093229249 2.0312276724 
Al 8.0107412355 40.0246712822 12.1464421146 
Al -4.1314394151 40.0062786699 4.0251435888 
Al -0.0429808314 0.1913652963 2.0511496068 
Al 1.9656313945 0.2204626344 4.0022026984 
Al -0.0816673897 39.9984865355 4.0266067638 
Al 1.9479547590 39.9837976345 6.0339775400 
Al 1.9648143449 0.1473716197 8.0630953828 
Al 1.9661150625 39.9846025130 10.0980013660 
Al 3.9438979533 39.9915405554 12.1494711250 
Al 1.9292933247 0.1691938295 12.0988489747 
Al 5.8963845859 0.1524977594 12.1254231958 
Al -2.1098337719 40.0175776617 2.0012481959 
Al -2.1159404769 0.1957235998 4.0467334898 
Al -0.0689507322 0.1649577660 6.0350665867 
Al -2.1092987738 39.9880945534 6.0535724429 
Al -0.0681273324 39.9743026078 8.0738842478 
Al 3.9868734929 0.1631617385 6.0376473839 
Al -0.0660180321 0.1539016665 10.0983696733 
Al 3.9909709121 39.9967682971 8.0821775130 
Al 3.9742298618 0.2373312163 10.1291704328 
Al 5.9919709238 39.9916500951 10.1087695930 
Al 7.8620905944 1.9946271306 12.1587412514 
Al -4.2068836808 2.4541910791 3.9349892550 
Al -0.0103782235 2.2452115902 4.0757488054 
Al 1.9919426146 2.1690285931 6.0656154579 
Al 1.9715513000 2.2158449009 9.9854088600 
Al 3.7820268780 2.3160536017 12.2633500607 
Al -2.0757738100 2.1132612527 2.0472321079 
Al -2.0941198547 2.2086274529 5.9828373252 
Al -0.0723194743 2.1237950543 8.0561139479 
Al 4.0522543957 2.1772345441 8.0886064869 
Al 6.0517790613 2.2146838861 10.0405062620 
Al -4.1223089915 25.9433053974 1.9729419777 
Al 0.0008313374 25.8888022614 2.0072072604 
Al 2.0033601421 25.8511624156 3.9582100801 
Al 1.9925427016 25.9526866510 8.1295351691 
Al 1.9710840365 25.8590662064 12.0693875627 
Al 6.0578989958 25.8985221884 12.1540352784 
Al -2.0797881483 25.8508671347 3.9029613335 
Al -0.2657258071 25.7623204412 6.1730992870 
Al 3.8191984020 26.0755293195 6.0706405247 
Al -0.1396064733 25.6164035297 10.0197450525 
Al 4.0563692776 25.8222666940 10.1640765492 

