&CONTROL
/
&SYSTEM
   ntyp             = 3
   nat              = 22
   ibrav            = 0
/
&ELECTRONS
/
&IONS
/
&CELL
/

ATOMIC_SPECIES
Al 26.9815385 Al_dummy.UPF
Mg 24.305 Mg_dummy.UPF
Si 28.085 Si_dummy.UPF

K_POINTS gamma

CELL_PARAMETERS angstrom
14.49965983185253 0.00000000000000 -4.31685675954080
0.00000000000000 4.12158666460227 0.00000000000000
0.00000000000000 0.00000000000000 6.65219622469504

ATOMIC_POSITIONS angstrom
Al 0.0204574618 0.0000000000 6.5700578672 
Mg 1.0625412712 2.0607933323 1.9147885773 
Mg 2.2432054794 2.0607933323 5.3264538508 
Mg 5.0475642314 0.0000000000 -0.9970148448 
Mg 6.2282416690 0.0000000000 2.4146975255 
Si 0.8568061678 0.0000000000 4.0920310590 
Si 2.6651248195 0.0000000000 0.5786319960 
Al 3.1801042055 0.0000000000 3.1005725750 
Al 4.1106242295 2.0607933323 1.2288685478 
Si 4.6255491103 2.0607933323 3.7508017183 
Si 6.4338958084 2.0607933323 0.2374561022 
Al 7.2702873777 2.0607933323 4.4116292229 
Mg 8.3123711871 0.0000000000 -0.2436400670 
Mg 9.4930359245 0.0000000000 3.1680252065 
Mg 12.2973941474 2.0607933323 -3.1554429599 
Mg 13.4780721141 2.0607933323 0.2562699395 
Si 8.1066360837 2.0607933323 1.9336024147 
Si 9.9149547354 2.0607933323 -1.5797966484 
Al 10.4299341214 2.0607933323 0.9421439306 
Al 11.3604541454 0.0000000000 -0.9295595674 
Si 11.8753790262 0.0000000000 1.5923736032 
Si 13.6837257243 0.0000000000 -1.9209720130 

