&CONTROL
/
&SYSTEM
   ntyp             = 3
   nat              = 22
   ibrav            = 0
/
&ELECTRONS
/
&IONS
/
&CELL
/

ATOMIC_SPECIES
Mg 24.305 Mg_dummy.UPF
Si 28.085 Si_dummy.UPF
Al 26.9815385 Al_dummy.UPF

K_POINTS gamma

CELL_PARAMETERS angstrom
14.76962540677099 0.00000000000000 -4.23164599920976
0.00000000000000 4.05429490297534 0.00000000000000
0.00000000000000 0.00000000000000 6.83716800193879

ATOMIC_POSITIONS angstrom
Mg 0.0133051026 0.0000000000 6.7545089341 
Mg 1.1127718304 2.0271477161 2.0589020530 
Mg 2.2998634250 2.0271477161 5.5080013224 
Mg 5.1118021114 0.0000000000 -0.9508732379 
Mg 6.2988820640 0.0000000000 2.4982456111 
Si 0.8663726334 0.0000000000 4.1728692281 
Si 2.7563470329 0.0000000000 0.6541212418 
Al 3.2138450736 0.0000000000 3.2216382664 
Al 4.1978040582 2.0271477161 1.3355019891 
Si 4.6553216785 2.0271477161 3.9030073719 
Si 6.5452622107 2.0271477161 0.3842763192 
Mg 7.3983360916 2.0271477161 4.6398088486 
Mg 8.4977176219 0.0000000000 -0.0556445712 
Mg 9.6849108184 0.0000000000 3.3929069998 
Mg 12.4963827706 2.0271477161 -3.0674259729 
Mg 13.6835616794 2.0271477161 0.3811457069 
Si 8.2513470004 2.0271477161 2.0581151664 
Si 10.1412229730 2.0271477161 -1.4612868829 
Al 10.5985781358 2.0271477161 1.1060973182 
Al 11.5826969320 0.0000000000 -0.7806046494 
Si 12.0400711452 0.0000000000 1.7867673806 
Si 13.9299137796 0.0000000000 -1.7326161475 

