&CONTROL
  calculation = 'scf'
  outdir = './out/'
  prefix = 'aiida'
  pseudo_dir = '/users/aglensk/Dropbox/Albert/scripts/dotfiles/scripts/potentials/quantum_espresso/pseudo_SSSPefV1.1_alalloy'
  tprnfor = .true.             	! calculate the pressure of the cell
  tstress = .true.
  verbosity = 'high'
  wf_collect = .true.
  etot_conv_thr = 2.5d-4    ! EDIFFG positive atomic units
  forc_conv_thr = 2.0d-5
/
&SYSTEM
  degauss =   4.4100000000d-02  ! SIGMA in Rydberg  so, 0.60001101eV
  ecutrho = 400                 ! AUGMENTATION charges
  ecutwfc =  40                 ! ENCUT in Rydberg, so 544eV
  ibrav = 0                     ! no symmetry
   nat              = 22
   ntyp             = 3
  occupations = 'smearing'      ! using smearing 
  smearing = 'mp'               ! methfessel paxton
  nosym= .true. 		! no symmetry
/
&ELECTRONS
  conv_thr =   1.0000000000d-12   	! EDIFF
  mixing_beta =   4.0000000000d-01      ! MIXING
  mixing_mode = 'local-TF'                 ! MIXING
/
&IONS
  !press_conv_thr = 0.05                 ! just for volume relaxations
/
ATOMIC_SPECIES
Al 26.9815385 Al.pbe-n-kjpaw_psl.1.0.0.UPF
Mg 24.305 Mg.pbe-n-kjpaw_psl.0.3.0.UPF
Si 28.085 Si.pbe-n-rrkjus_psl.1.0.0.UPF

K_POINTS automatic
6 20 13 0 0 0
CELL_PARAMETERS angstrom
14.49965983185253 0.00000000000000 -4.31353405583567
0.00000000000000 4.12158666460227 0.00000000000000
0.00724972778472 0.00000000000000 6.64339230344289

ATOMIC_POSITIONS angstrom
Al 0.0277220065 0.0000000000 6.5608126122 
Mg 1.0657454392 2.0607933323 1.9116674901 
Mg 2.2491751275 2.0607933323 5.3180039491 
Mg 5.0488517196 0.0000000000 -0.9973688643 
Mg 6.2322972832 0.0000000000 2.4090379753 
Si 0.8617095238 0.0000000000 4.0855851514 
Si 2.6665451311 0.0000000000 0.5761390421 
Al 3.1853351222 0.0000000000 3.0961825208 
Al 4.1126409239 2.0607933323 1.2244435680 
Si 4.6313663553 2.0607933323 3.7444738173 
Si 6.4362432385 2.0607933323 0.2350927967 
Al 7.2775122342 2.0607933323 4.4032729856 
Mg 8.3153975516 0.0000000000 -0.2459647425 
Mg 9.4987097625 0.0000000000 3.1609030104 
Mg 12.2989779748 2.0607933323 -3.1537993355 
Mg 13.4823050026 2.0607933323 0.2531382688 
Si 8.1114087330 2.0607933323 1.9281217263 
Si 9.9165126331 2.0607933323 -1.5808364816 
Al 10.4352486481 2.0607933323 0.9392704984 
Al 11.3623872298 0.0000000000 -0.9321752903 
Si 11.8810597435 0.0000000000 1.5879189894 
Si 13.6862038612 0.0000000000 -1.9209757173 

